des obtained from _NaVPO4F_su_s10_1u_100_end by uniform scaling by -0.5555555555555554 %
len_units Angstrom
hex_a None
hex_c None
gbpos None
version 5
acell 1 1 1
natom  128
ntypat 5
znucl  11 23 15 8 9 
typat  1 1 1 1 1 1 1 1 1 1 1 1 1 1 1 1 2 2 2 2 
2 2 2 2 2 2 2 2 2 2 2 2 3 3 3 3 3 3 3 3 
3 3 3 3 3 3 3 3 4 4 4 4 4 4 4 4 4 4 4 4 
4 4 4 4 4 4 4 4 4 4 4 4 4 4 4 4 4 4 4 4 
4 4 4 4 4 4 4 4 4 4 4 4 4 4 4 4 4 4 4 4 
4 4 4 4 4 4 4 4 4 4 4 4 5 5 5 5 5 5 5 5 
5 5 5 5 5 5 5 5 
rprim  12.774777527778 0.000000000000 0.000000000000 
0.000000000000 12.618818805556 0.000000000000 
0.000000000000 0.000000000000 10.702564138889 
xred  0.850861454381 0.392238829225 0.275882054521 
0.149138545619 0.107761170775 0.775882054521 
0.350861454381 0.357761170775 0.275882054521 
0.649138545619 0.142238829225 0.775882054521 
0.599975656338 0.389383747367 0.066997214876 
0.400024343662 0.110616252633 0.566997214876 
0.099975656338 0.360616252633 0.066997214876 
0.900024343662 0.139383747367 0.566997214876 
0.850861454381 0.892238829225 0.275882054521 
0.149138545619 0.607761170775 0.775882054521 
0.350861454381 0.857761170775 0.275882054521 
0.649138545619 0.642238829225 0.775882054521 
0.599975656338 0.889383747367 0.066997214876 
0.400024343662 0.610616252633 0.566997214876 
0.099975656338 0.860616252633 0.066997214876 
0.900024343662 0.639383747367 0.566997214876 
0.882844755720 0.256137833301 0.006948300710 
0.117155244280 0.243862166699 0.506948300710 
0.382844755720 0.493862166699 0.006948300710 
0.617155244280 0.006137833301 0.506948300710 
0.733963549728 0.129416114053 0.243435201752 
0.266036450272 0.370583885947 0.743435201752 
0.233963549728 0.120583885947 0.243435201752 
0.766036450272 0.379416114053 0.743435201752 
0.882844755720 0.756137833301 0.006948300710 
0.117155244280 0.743862166699 0.506948300710 
0.382844755720 0.993862166699 0.006948300710 
0.617155244280 0.506137833301 0.506948300710 
0.733963549728 0.629416114053 0.243435201752 
0.266036450272 0.870583885947 0.743435201752 
0.233963549728 0.620583885947 0.243435201752 
0.766036450272 0.879416114053 0.743435201752 
0.984648609461 0.167715652784 0.266268727465 
0.015351390539 0.332284347216 0.766268727465 
0.484648609461 0.082284347216 0.266268727465 
0.515351390539 0.417715652784 0.766268727465 
0.685448570465 0.257304654660 0.501151088282 
0.314551429535 0.242695345340 0.001151088282 
0.185448570465 0.492695345340 0.501151088282 
0.814551429535 0.007304654660 0.001151088282 
0.984648609461 0.667715652784 0.266268727465 
0.015351390539 0.832284347216 0.766268727465 
0.484648609461 0.582284347216 0.266268727465 
0.515351390539 0.917715652784 0.766268727465 
0.685448570465 0.757304654660 0.501151088282 
0.314551429535 0.742695345340 0.001151088282 
0.185448570465 0.992695345340 0.501151088282 
0.814551429535 0.507304654660 0.001151088282 
0.970457003208 0.258653275282 0.169869827777 
0.029542996792 0.241346724718 0.669869827777 
0.470457003208 0.491346724718 0.169869827777 
0.529542996792 0.008653275282 0.669869827777 
0.993391998206 0.222048375180 0.396607889210 
0.006608001794 0.277951624820 0.896607889210 
0.493391998206 0.027951624820 0.396607889210 
0.506608001794 0.472048375180 0.896607889210 
0.887369995746 0.095013541352 0.269452950816 
0.112630004254 0.404986458648 0.769452950816 
0.387369995746 0.154986458648 0.269452950816 
0.612630004254 0.345013541352 0.769452950816 
0.080292154329 0.099019598397 0.234889075682 
0.919707845671 0.400980401603 0.734889075682 
0.580292154329 0.150980401603 0.234889075682 
0.419707845671 0.349019598397 0.734889075682 
0.617477277446 0.161266202956 0.537438950243 
0.382522722554 0.338733797044 0.037438950243 
0.117477277446 0.088733797044 0.537438950243 
0.882522722554 0.411266202956 0.037438950243 
0.612254108803 0.352363496370 0.491576395672 
0.387745891197 0.147636503630 0.991576395672 
0.112254108803 0.397636503630 0.491576395672 
0.887745891197 0.102363496370 0.991576395672 
0.769075420457 0.270840626070 0.605905813751 
0.230924579543 0.229159373930 0.105905813751 
0.269075420457 0.479159373930 0.605905813751 
0.730924579543 0.020840626070 0.105905813751 
0.746503997082 0.239607311412 0.378210926903 
0.253496002918 0.260392688588 0.878210926903 
0.246503997082 0.010392688588 0.378210926903 
0.753496002918 0.489607311412 0.878210926903 
0.970457003208 0.758653275282 0.169869827777 
0.029542996792 0.741346724718 0.669869827777 
0.470457003208 0.991346724718 0.169869827777 
0.529542996792 0.508653275282 0.669869827777 
0.993391998206 0.722048375180 0.396607889210 
0.006608001794 0.777951624820 0.896607889210 
0.493391998206 0.527951624820 0.396607889210 
0.506608001794 0.972048375180 0.896607889210 
0.887369995746 0.595013541352 0.269452950816 
0.112630004254 0.904986458648 0.769452950816 
0.387369995746 0.654986458648 0.269452950816 
0.612630004254 0.845013541352 0.769452950816 
0.080292154329 0.599019598397 0.234889075682 
0.919707845671 0.900980401603 0.734889075682 
0.580292154329 0.650980401603 0.234889075682 
0.419707845671 0.849019598397 0.734889075682 
0.617477277446 0.661266202956 0.537438950243 
0.382522722554 0.838733797044 0.037438950243 
0.117477277446 0.588733797044 0.537438950243 
0.882522722554 0.911266202956 0.037438950243 
0.612254108803 0.852363496370 0.491576395672 
0.387745891197 0.647636503630 0.991576395672 
0.112254108803 0.897636503630 0.491576395672 
0.887745891197 0.602363496370 0.991576395672 
0.769075420457 0.770840626070 0.605905813751 
0.230924579543 0.729159373930 0.105905813751 
0.269075420457 0.979159373930 0.605905813751 
0.730924579543 0.520840626070 0.105905813751 
0.746503997082 0.739607311412 0.378210926903 
0.253496002918 0.760392688588 0.878210926903 
0.246503997082 0.510392688588 0.378210926903 
0.753496002918 0.989607311412 0.878210926903 
0.781935748726 0.256671706781 0.862686794496 
0.218064251274 0.243328293219 0.362686794496 
0.281935748726 0.493328293219 0.862686794496 
0.718064251274 0.006671706781 0.362686794496 
0.753550301749 0.251002651649 0.118895871374 
0.246449698251 0.248997348351 0.618895871374 
0.253550301749 0.498997348351 0.118895871374 
0.746449698251 0.001002651649 0.618895871374 
0.781935748726 0.756671706781 0.862686794496 
0.218064251274 0.743328293219 0.362686794496 
0.281935748726 0.993328293219 0.862686794496 
0.718064251274 0.506671706781 0.362686794496 
0.753550301749 0.751002651649 0.118895871374 
0.246449698251 0.748997348351 0.618895871374 
0.253550301749 0.998997348351 0.118895871374 
0.746449698251 0.501002651649 0.618895871374 
xcart  10.869565786679 4.949590714494 2.952645383279 
1.905211741099 1.359818688284 8.303927452724 
4.482177022790 4.514523389673 2.952645383279 
8.292600504988 1.794886013105 8.303927452724 
7.664555531800 4.913562953852 0.717041989337 
5.110221995977 1.395846448925 6.068324058782 
1.277166767912 4.550551150314 0.717041989337 
11.497610759866 1.758858252463 6.068324058782 
10.869565786679 11.259000117271 2.952645383279 
1.905211741099 7.669228091062 8.303927452724 
4.482177022790 10.823932792451 2.952645383279 
8.292600504988 8.104295415882 8.303927452724 
7.664555531800 11.222972356630 0.717041989337 
5.110221995977 7.705255851703 6.068324058782 
1.277166767912 10.859960553092 0.717041989337 
11.497610759866 8.068267655241 6.068324058782 
11.278145345888 3.232156907673 0.074364634005 
1.496632181889 3.077252495105 5.425646703450 
4.890756581999 6.231957196494 0.074364634005 
7.884020945778 0.077452206284 5.425646703450 
9.376221061273 1.633078493754 2.605380860414 
3.398556466504 4.676330909024 7.956662929859 
2.988832297384 1.521626207635 2.605380860414 
9.785945230393 4.787783195143 7.956662929859 
11.278145345888 9.541566310451 0.074364634005 
1.496632181889 9.386661897883 5.425646703450 
4.890756581999 12.541366599272 0.074364634005 
7.884020945778 6.386861609062 5.425646703450 
9.376221061273 7.942487896532 2.605380860414 
3.398556466504 10.985740311802 7.956662929859 
2.988832297384 7.831035610413 2.605380860414 
9.785945230393 11.097192597921 7.956662929859 
12.578666928900 2.116373433337 2.849758133874 
0.196110598878 4.193035969441 8.201040203319 
6.191278165011 1.038331268052 2.849758133874 
6.583499362767 5.271078134726 8.201040203319 
8.756452994424 3.246880814981 5.363601665612 
4.018324533354 3.062528587797 0.012319596168 
2.369064230535 6.217233289186 5.363601665612 
10.405713297243 0.092176113592 0.012319596168 
12.578666928900 8.425782836115 2.849758133874 
0.196110598878 10.502445372219 8.201040203319 
6.191278165011 7.347740670830 2.849758133874 
6.583499362767 11.580487537503 8.201040203319 
8.756452994424 9.556290217758 5.363601665612 
4.018324533354 9.371937990575 0.012319596168 
2.369064230535 12.526642691964 5.363601665612 
10.405713297243 6.401585516369 0.012319596168 
12.397372316256 3.263898814247 1.818042727045 
0.377405211522 3.045510588531 7.169324796490 
6.009983552367 6.200215289920 1.818042727045 
6.764793975411 0.109194112858 7.169324796490 
12.690361774956 2.801988212464 4.244721372259 
0.084415752822 3.507421190313 9.596003441704 
6.302973011067 0.352716488924 4.244721372259 
6.471804516710 5.956692913853 9.596003441704 
11.335954280480 1.198958662395 2.883837488521 
1.438823247298 5.110450740383 8.235119557966 
4.948565516591 1.955746038994 2.883837488521 
7.826212011186 4.353663363784 8.235119557966 
1.025714408779 1.249510370371 2.513915398011 
11.749063118999 5.059899032407 7.865197467455 
7.413103172668 1.905194331018 2.513915398011 
5.361674355110 4.404215071760 7.865197467455 
7.888134847831 2.034988994562 5.751974835713 
4.886642679947 4.274420408216 0.400692766268 
1.500746083942 1.119715706827 5.751974835713 
11.274031443836 5.189693695951 0.400692766268 
7.821410030426 4.446411114385 5.261127903843 
4.953367497352 1.862998288393 10.612409973288 
1.434021266537 5.017702989782 5.261127903843 
11.340756261240 1.291706412996 10.612409973288 
9.824767398420 3.417688785561 6.484745833796 
2.950010129357 2.891720617217 1.133463764351 
3.437378634531 6.046425318606 6.484745833796 
9.337398893246 0.262984084172 1.133463764351 
9.536422486319 3.023561247194 4.047826703208 
3.238355041458 3.285848155583 9.399108772652 
3.149033722431 0.131143454195 4.047826703208 
9.625743805347 6.178265948583 9.399108772652 
12.397372316256 9.573308217025 1.818042727045 
0.377405211522 9.354919991309 7.169324796490 
6.009983552367 12.509624692697 1.818042727045 
6.764793975411 6.418603515636 7.169324796490 
12.690361774956 9.111397615242 4.244721372259 
0.084415752822 9.816830593091 9.596003441704 
6.302973011067 6.662125891702 4.244721372259 
6.471804516710 12.266102316631 9.596003441704 
11.335954280480 7.508368065173 2.883837488521 
1.438823247298 11.419860143160 8.235119557966 
4.948565516591 8.265155441772 2.883837488521 
7.826212011186 10.663072766562 8.235119557966 
1.025714408779 7.558919773148 2.513915398011 
11.749063118999 11.369308435185 7.865197467455 
7.413103172668 8.214603733796 2.513915398011 
5.361674355110 10.713624474537 7.865197467455 
7.888134847831 8.344398397339 5.751974835713 
4.886642679947 10.583829810994 0.400692766268 
1.500746083942 7.429125109605 5.751974835713 
11.274031443836 11.499103098728 0.400692766268 
7.821410030426 10.755820517163 5.261127903843 
4.953367497352 8.172407691170 10.612409973288 
1.434021266537 11.327112392559 5.261127903843 
11.340756261240 7.601115815774 10.612409973288 
9.824767398420 9.727098188338 6.484745833796 
2.950010129357 9.201130019995 1.133463764351 
3.437378634531 12.355834721384 6.484745833796 
9.337398893246 6.572393486949 1.133463764351 
9.536422486319 9.332970649972 4.047826703208 
3.238355041458 9.595257558361 9.399108772652 
3.149033722431 6.440552856972 4.047826703208 
9.625743805347 12.487675351361 9.399108772652 
9.989055230991 3.238893760382 9.232960749866 
2.785722296787 3.070515642396 3.881678680421 
3.601666467102 6.225220343785 9.232960749866 
9.173111060676 0.084189058993 3.881678680421 
9.626437460833 3.167356980873 1.272490689229 
3.148340066944 3.142052421905 6.623772758674 
3.239048696944 6.296757123294 1.272490689229 
9.535728830833 0.012652279484 6.623772758674 
9.989055230991 9.548303163160 9.232960749866 
2.785722296787 9.379925045173 3.881678680421 
3.601666467102 12.534629746562 9.232960749866 
9.173111060676 6.393598461771 3.881678680421 
9.626437460833 9.476766383651 1.272490689229 
3.148340066944 9.451461824683 6.623772758674 
3.239048696944 12.606166526072 1.272490689229 
9.535728830833 6.322061682262 6.623772758674 
