des obtained from _NaVPO4F_su_s10_1u_100_end by uniform scaling by 1.666666666666667 %
len_units Angstrom
hex_a None
hex_c None
gbpos None
version 7
acell 1 1 1
natom  128
ntypat 5
znucl  11 23 15 8 9 
typat  1 1 1 1 1 1 1 1 1 1 1 1 1 1 1 1 2 2 2 2 
2 2 2 2 2 2 2 2 2 2 2 2 3 3 3 3 3 3 3 3 
3 3 3 3 3 3 3 3 4 4 4 4 4 4 4 4 4 4 4 4 
4 4 4 4 4 4 4 4 4 4 4 4 4 4 4 4 4 4 4 4 
4 4 4 4 4 4 4 4 4 4 4 4 4 4 4 4 4 4 4 4 
4 4 4 4 4 4 4 4 4 4 4 4 5 5 5 5 5 5 5 5 
5 5 5 5 5 5 5 5 
rprim  13.060247416667 0.000000000000 0.000000000000 
0.000000000000 12.900803583333 0.000000000000 
0.000000000000 0.000000000000 10.941727583333 
xred  0.850861454381 0.392238829225 0.275882054521 
0.149138545619 0.107761170775 0.775882054521 
0.350861454381 0.357761170775 0.275882054521 
0.649138545619 0.142238829225 0.775882054521 
0.599975656338 0.389383747367 0.066997214876 
0.400024343662 0.110616252633 0.566997214876 
0.099975656338 0.360616252633 0.066997214876 
0.900024343662 0.139383747367 0.566997214876 
0.850861454381 0.892238829225 0.275882054521 
0.149138545619 0.607761170775 0.775882054521 
0.350861454381 0.857761170775 0.275882054521 
0.649138545619 0.642238829225 0.775882054521 
0.599975656338 0.889383747367 0.066997214876 
0.400024343662 0.610616252633 0.566997214876 
0.099975656338 0.860616252633 0.066997214876 
0.900024343662 0.639383747367 0.566997214876 
0.882844755720 0.256137833301 0.006948300710 
0.117155244280 0.243862166699 0.506948300710 
0.382844755720 0.493862166699 0.006948300710 
0.617155244280 0.006137833301 0.506948300710 
0.733963549728 0.129416114053 0.243435201752 
0.266036450272 0.370583885947 0.743435201752 
0.233963549728 0.120583885947 0.243435201752 
0.766036450272 0.379416114053 0.743435201752 
0.882844755720 0.756137833301 0.006948300710 
0.117155244280 0.743862166699 0.506948300710 
0.382844755720 0.993862166699 0.006948300710 
0.617155244280 0.506137833301 0.506948300710 
0.733963549728 0.629416114053 0.243435201752 
0.266036450272 0.870583885947 0.743435201752 
0.233963549728 0.620583885947 0.243435201752 
0.766036450272 0.879416114053 0.743435201752 
0.984648609461 0.167715652784 0.266268727465 
0.015351390539 0.332284347216 0.766268727465 
0.484648609461 0.082284347216 0.266268727465 
0.515351390539 0.417715652784 0.766268727465 
0.685448570465 0.257304654660 0.501151088282 
0.314551429535 0.242695345340 0.001151088282 
0.185448570465 0.492695345340 0.501151088282 
0.814551429535 0.007304654660 0.001151088282 
0.984648609461 0.667715652784 0.266268727465 
0.015351390539 0.832284347216 0.766268727465 
0.484648609461 0.582284347216 0.266268727465 
0.515351390539 0.917715652784 0.766268727465 
0.685448570465 0.757304654660 0.501151088282 
0.314551429535 0.742695345340 0.001151088282 
0.185448570465 0.992695345340 0.501151088282 
0.814551429535 0.507304654660 0.001151088282 
0.970457003208 0.258653275282 0.169869827777 
0.029542996792 0.241346724718 0.669869827777 
0.470457003208 0.491346724718 0.169869827777 
0.529542996792 0.008653275282 0.669869827777 
0.993391998206 0.222048375180 0.396607889210 
0.006608001794 0.277951624820 0.896607889210 
0.493391998206 0.027951624820 0.396607889210 
0.506608001794 0.472048375180 0.896607889210 
0.887369995746 0.095013541352 0.269452950816 
0.112630004254 0.404986458648 0.769452950816 
0.387369995746 0.154986458648 0.269452950816 
0.612630004254 0.345013541352 0.769452950816 
0.080292154329 0.099019598397 0.234889075682 
0.919707845671 0.400980401603 0.734889075682 
0.580292154329 0.150980401603 0.234889075682 
0.419707845671 0.349019598397 0.734889075682 
0.617477277446 0.161266202956 0.537438950243 
0.382522722554 0.338733797044 0.037438950243 
0.117477277446 0.088733797044 0.537438950243 
0.882522722554 0.411266202956 0.037438950243 
0.612254108803 0.352363496370 0.491576395672 
0.387745891197 0.147636503630 0.991576395672 
0.112254108803 0.397636503630 0.491576395672 
0.887745891197 0.102363496370 0.991576395672 
0.769075420457 0.270840626070 0.605905813751 
0.230924579543 0.229159373930 0.105905813751 
0.269075420457 0.479159373930 0.605905813751 
0.730924579543 0.020840626070 0.105905813751 
0.746503997082 0.239607311412 0.378210926903 
0.253496002918 0.260392688588 0.878210926903 
0.246503997082 0.010392688588 0.378210926903 
0.753496002918 0.489607311412 0.878210926903 
0.970457003208 0.758653275282 0.169869827777 
0.029542996792 0.741346724718 0.669869827777 
0.470457003208 0.991346724718 0.169869827777 
0.529542996792 0.508653275282 0.669869827777 
0.993391998206 0.722048375180 0.396607889210 
0.006608001794 0.777951624820 0.896607889210 
0.493391998206 0.527951624820 0.396607889210 
0.506608001794 0.972048375180 0.896607889210 
0.887369995746 0.595013541352 0.269452950816 
0.112630004254 0.904986458648 0.769452950816 
0.387369995746 0.654986458648 0.269452950816 
0.612630004254 0.845013541352 0.769452950816 
0.080292154329 0.599019598397 0.234889075682 
0.919707845671 0.900980401603 0.734889075682 
0.580292154329 0.650980401603 0.234889075682 
0.419707845671 0.849019598397 0.734889075682 
0.617477277446 0.661266202956 0.537438950243 
0.382522722554 0.838733797044 0.037438950243 
0.117477277446 0.588733797044 0.537438950243 
0.882522722554 0.911266202956 0.037438950243 
0.612254108803 0.852363496370 0.491576395672 
0.387745891197 0.647636503630 0.991576395672 
0.112254108803 0.897636503630 0.491576395672 
0.887745891197 0.602363496370 0.991576395672 
0.769075420457 0.770840626070 0.605905813751 
0.230924579543 0.729159373930 0.105905813751 
0.269075420457 0.979159373930 0.605905813751 
0.730924579543 0.520840626070 0.105905813751 
0.746503997082 0.739607311412 0.378210926903 
0.253496002918 0.760392688588 0.878210926903 
0.246503997082 0.510392688588 0.378210926903 
0.753496002918 0.989607311412 0.878210926903 
0.781935748726 0.256671706781 0.862686794496 
0.218064251274 0.243328293219 0.362686794496 
0.281935748726 0.493328293219 0.862686794496 
0.718064251274 0.006671706781 0.362686794496 
0.753550301749 0.251002651649 0.118895871374 
0.246449698251 0.248997348351 0.618895871374 
0.253550301749 0.498997348351 0.118895871374 
0.746449698251 0.001002651649 0.618895871374 
0.781935748726 0.756671706781 0.862686794496 
0.218064251274 0.743328293219 0.362686794496 
0.281935748726 0.993328293219 0.862686794496 
0.718064251274 0.506671706781 0.362686794496 
0.753550301749 0.751002651649 0.118895871374 
0.246449698251 0.748997348351 0.618895871374 
0.253550301749 0.998997348351 0.118895871374 
0.746449698251 0.501002651649 0.618895871374 
xcart  11.112461111521 5.060196093588 3.018626285699 
1.947786305146 1.390205698078 8.489490077366 
4.582337403187 4.615406593912 3.018626285699 
8.477910013479 1.834995197755 8.489490077366 
7.835830515751 5.023363243324 0.733065274015 
5.224416900915 1.427038548343 6.203929065682 
1.305706807418 4.652239444176 0.733065274015 
11.754540609249 1.798162347491 6.203929065682 
11.112461111521 11.510597885255 3.018626285699 
1.947786305146 7.840607489745 8.489490077366 
4.582337403187 11.065808385578 3.018626285699 
8.477910013479 8.285396989422 8.489490077366 
7.835830515751 11.473765034991 0.733065274015 
5.224416900915 7.877440340009 6.203929065682 
1.305706807418 11.102641235843 0.733065274015 
11.754540609249 8.248564139157 6.203929065682 
11.530170940210 3.304383877677 0.076026413536 
1.530076476457 3.146017913990 5.546890205203 
5.000047231877 6.371218809823 0.076026413536 
8.060200184790 0.079182981843 5.546890205203 
9.585745554263 1.669571867916 2.663601661764 
3.474501862404 4.780829923751 8.134465453431 
3.055621845929 1.555629027917 2.663601661764 
10.004625570737 4.894772763749 8.134465453431 
11.530170940210 9.754785669343 0.076026413536 
1.530076476457 9.596419705657 5.546890205203 
5.000047231877 12.821620601490 0.076026413536 
8.060200184790 6.529584773510 5.546890205203 
9.585745554263 8.119973659583 2.663601661764 
3.474501862404 11.231231715417 8.134465453431 
3.055621845929 8.006030819584 2.663601661764 
10.004625570737 11.345174555416 8.134465453431 
12.859754458037 2.163666694417 2.913439879883 
0.200492958629 4.286735097250 8.384303671549 
6.329630749704 1.061534201416 2.913439879883 
6.730616666963 5.388867590250 8.384303671549 
8.952127921673 3.319436810846 5.483458686073 
4.108119494993 3.130964980821 0.012594894406 
2.422004213340 6.356165876654 5.483458686073 
10.638243203327 0.094235915013 0.012594894406 
12.859754458037 8.614068486084 2.913439879883 
0.200492958629 10.737136888916 8.384303671549 
6.329630749704 7.511935993083 2.913439879883 
6.730616666963 11.839269381917 8.384303671549 
8.952127921673 9.769838602513 5.483458686073 
4.108119494993 9.581366772487 0.012594894406 
2.422004213340 12.806567668321 5.483458686073 
10.638243203327 6.544637706679 0.012594894406 
12.674408569133 3.336835100599 1.858669380164 
0.385838847533 3.113566691068 7.329533171830 
6.144284860800 6.338767586901 1.858669380164 
6.915962555867 0.111634204766 7.329533171830 
12.973945278307 2.864602474196 4.339575481137 
0.086302138359 3.585799317471 9.810439272803 
6.443821569974 0.360598421638 4.339575481137 
6.616425846693 6.089803370029 9.810439272803 
11.589271694569 1.225751034739 2.948280784354 
1.470975722097 5.224650756928 8.419144576021 
5.059147986236 1.999449861094 2.948280784354 
8.001099430431 4.450951930572 8.419144576021 
1.048635401154 1.277432389820 2.570092278413 
12.011612015513 5.172969401846 8.040956070080 
7.578759109487 1.947768506013 2.570092278413 
5.481488307179 4.502633285654 8.040956070080 
8.064406017614 2.080463608965 5.880510586232 
4.995841399052 4.369938182701 0.409646794565 
1.534282309281 1.144737286868 5.880510586232 
11.525965107386 5.305664504799 0.409646794565 
7.996190142838 4.545772256606 5.378695007840 
5.064057273829 1.904629535061 10.849558799507 
1.466066434505 5.129830430894 5.378695007840 
11.594180982162 1.320571360773 10.849558799507 
10.044315273245 3.494061719316 6.629656355221 
3.015932143421 2.956340072351 1.158792563555 
3.514191564912 6.181540968184 6.629656355221 
9.546055851755 0.268860823483 1.158792563555 
9.749526899422 3.091126861657 4.138280931213 
3.310720517245 3.359274930010 9.609144722879 
3.219403191088 0.134074034177 4.138280931213 
9.840844225578 6.316327757490 9.609144722879 
12.674408569133 9.787236892266 1.858669380164 
0.385838847533 9.563968482734 7.329533171830 
6.144284860800 12.789169378568 1.858669380164 
6.915962555867 6.562035996432 7.329533171830 
12.973945278307 9.315004265862 4.339575481137 
0.086302138359 10.036201109138 9.810439272803 
6.443821569974 6.811000213304 4.339575481137 
6.616425846693 12.540205161696 9.810439272803 
11.589271694569 7.676152826406 2.948280784354 
1.470975722097 11.675052548594 8.419144576021 
5.059147986236 8.449851652761 2.948280784354 
8.001099430431 10.901353722239 8.419144576021 
1.048635401154 7.727834181487 2.570092278413 
12.011612015513 11.623371193513 8.040956070080 
7.578759109487 8.398170297680 2.570092278413 
5.481488307179 10.953035077320 8.040956070080 
8.064406017614 8.530865400632 5.880510586232 
4.995841399052 10.820339974368 0.409646794565 
1.534282309281 7.595139078535 5.880510586232 
11.525965107386 11.756066296465 0.409646794565 
7.996190142838 10.996174048273 5.378695007840 
5.064057273829 8.355031326727 10.849558799507 
1.466066434505 11.580232222561 5.378695007840 
11.594180982162 7.770973152439 10.849558799507 
10.044315273245 9.944463510983 6.629656355221 
3.015932143421 9.406741864017 1.158792563555 
3.514191564912 12.631942759851 6.629656355221 
9.546055851755 6.719262615149 1.158792563555 
9.749526899422 9.541528653323 4.138280931213 
3.310720517245 9.809676721677 9.609144722879 
3.219403191088 6.584475825843 4.138280931213 
9.840844225578 12.766729549157 9.609144722879 
10.212274342298 3.311271274581 9.439283895114 
2.847973074369 3.139130517086 3.968420103448 
3.682150633965 6.364331412919 9.439283895114 
9.378096782702 0.086070378747 3.968420103448 
9.841553381746 3.238135907820 1.300926235357 
3.218694034921 3.212265883847 6.771790027024 
3.311429673412 6.437466779680 1.300926235357 
9.748817743254 0.012935011986 6.771790027024 
10.212274342298 9.761673066247 9.439283895114 
2.847973074369 9.589532308753 3.968420103448 
3.682150633965 12.814733204586 9.439283895114 
9.378096782702 6.536472170414 3.968420103448 
9.841553381746 9.688537699486 1.300926235357 
3.218694034921 9.662667675514 6.771790027024 
3.311429673412 12.887868571347 1.300926235357 
9.748817743254 6.463336803653 6.771790027024 
