des obtained from _NaVPO4F_su_s10_1u_100_end by uniform scaling by -1.6666666666666665 %
len_units Angstrom
hex_a None
hex_c None
gbpos None
version 4
acell 1 1 1
natom  128
ntypat 5
znucl  11 23 15 8 9 
typat  1 1 1 1 1 1 1 1 1 1 1 1 1 1 1 1 2 2 2 2 
2 2 2 2 2 2 2 2 2 2 2 2 3 3 3 3 3 3 3 3 
3 3 3 3 3 3 3 3 4 4 4 4 4 4 4 4 4 4 4 4 
4 4 4 4 4 4 4 4 4 4 4 4 4 4 4 4 4 4 4 4 
4 4 4 4 4 4 4 4 4 4 4 4 4 4 4 4 4 4 4 4 
4 4 4 4 4 4 4 4 4 4 4 4 5 5 5 5 5 5 5 5 
5 5 5 5 5 5 5 5 
rprim  12.632042583333 0.000000000000 0.000000000000 
0.000000000000 12.477826416667 0.000000000000 
0.000000000000 0.000000000000 10.582982416667 
xred  0.850861454381 0.392238829225 0.275882054521 
0.149138545619 0.107761170775 0.775882054521 
0.350861454381 0.357761170775 0.275882054521 
0.649138545619 0.142238829225 0.775882054521 
0.599975656338 0.389383747367 0.066997214876 
0.400024343662 0.110616252633 0.566997214876 
0.099975656338 0.360616252633 0.066997214876 
0.900024343662 0.139383747367 0.566997214876 
0.850861454381 0.892238829225 0.275882054521 
0.149138545619 0.607761170775 0.775882054521 
0.350861454381 0.857761170775 0.275882054521 
0.649138545619 0.642238829225 0.775882054521 
0.599975656338 0.889383747367 0.066997214876 
0.400024343662 0.610616252633 0.566997214876 
0.099975656338 0.860616252633 0.066997214876 
0.900024343662 0.639383747367 0.566997214876 
0.882844755720 0.256137833301 0.006948300710 
0.117155244280 0.243862166699 0.506948300710 
0.382844755720 0.493862166699 0.006948300710 
0.617155244280 0.006137833301 0.506948300710 
0.733963549728 0.129416114053 0.243435201752 
0.266036450272 0.370583885947 0.743435201752 
0.233963549728 0.120583885947 0.243435201752 
0.766036450272 0.379416114053 0.743435201752 
0.882844755720 0.756137833301 0.006948300710 
0.117155244280 0.743862166699 0.506948300710 
0.382844755720 0.993862166699 0.006948300710 
0.617155244280 0.506137833301 0.506948300710 
0.733963549728 0.629416114053 0.243435201752 
0.266036450272 0.870583885947 0.743435201752 
0.233963549728 0.620583885947 0.243435201752 
0.766036450272 0.879416114053 0.743435201752 
0.984648609461 0.167715652784 0.266268727465 
0.015351390539 0.332284347216 0.766268727465 
0.484648609461 0.082284347216 0.266268727465 
0.515351390539 0.417715652784 0.766268727465 
0.685448570465 0.257304654660 0.501151088282 
0.314551429535 0.242695345340 0.001151088282 
0.185448570465 0.492695345340 0.501151088282 
0.814551429535 0.007304654660 0.001151088282 
0.984648609461 0.667715652784 0.266268727465 
0.015351390539 0.832284347216 0.766268727465 
0.484648609461 0.582284347216 0.266268727465 
0.515351390539 0.917715652784 0.766268727465 
0.685448570465 0.757304654660 0.501151088282 
0.314551429535 0.742695345340 0.001151088282 
0.185448570465 0.992695345340 0.501151088282 
0.814551429535 0.507304654660 0.001151088282 
0.970457003208 0.258653275282 0.169869827777 
0.029542996792 0.241346724718 0.669869827777 
0.470457003208 0.491346724718 0.169869827777 
0.529542996792 0.008653275282 0.669869827777 
0.993391998206 0.222048375180 0.396607889210 
0.006608001794 0.277951624820 0.896607889210 
0.493391998206 0.027951624820 0.396607889210 
0.506608001794 0.472048375180 0.896607889210 
0.887369995746 0.095013541352 0.269452950816 
0.112630004254 0.404986458648 0.769452950816 
0.387369995746 0.154986458648 0.269452950816 
0.612630004254 0.345013541352 0.769452950816 
0.080292154329 0.099019598397 0.234889075682 
0.919707845671 0.400980401603 0.734889075682 
0.580292154329 0.150980401603 0.234889075682 
0.419707845671 0.349019598397 0.734889075682 
0.617477277446 0.161266202956 0.537438950243 
0.382522722554 0.338733797044 0.037438950243 
0.117477277446 0.088733797044 0.537438950243 
0.882522722554 0.411266202956 0.037438950243 
0.612254108803 0.352363496370 0.491576395672 
0.387745891197 0.147636503630 0.991576395672 
0.112254108803 0.397636503630 0.491576395672 
0.887745891197 0.102363496370 0.991576395672 
0.769075420457 0.270840626070 0.605905813751 
0.230924579543 0.229159373930 0.105905813751 
0.269075420457 0.479159373930 0.605905813751 
0.730924579543 0.020840626070 0.105905813751 
0.746503997082 0.239607311412 0.378210926903 
0.253496002918 0.260392688588 0.878210926903 
0.246503997082 0.010392688588 0.378210926903 
0.753496002918 0.489607311412 0.878210926903 
0.970457003208 0.758653275282 0.169869827777 
0.029542996792 0.741346724718 0.669869827777 
0.470457003208 0.991346724718 0.169869827777 
0.529542996792 0.508653275282 0.669869827777 
0.993391998206 0.722048375180 0.396607889210 
0.006608001794 0.777951624820 0.896607889210 
0.493391998206 0.527951624820 0.396607889210 
0.506608001794 0.972048375180 0.896607889210 
0.887369995746 0.595013541352 0.269452950816 
0.112630004254 0.904986458648 0.769452950816 
0.387369995746 0.654986458648 0.269452950816 
0.612630004254 0.845013541352 0.769452950816 
0.080292154329 0.599019598397 0.234889075682 
0.919707845671 0.900980401603 0.734889075682 
0.580292154329 0.650980401603 0.234889075682 
0.419707845671 0.849019598397 0.734889075682 
0.617477277446 0.661266202956 0.537438950243 
0.382522722554 0.838733797044 0.037438950243 
0.117477277446 0.588733797044 0.537438950243 
0.882522722554 0.911266202956 0.037438950243 
0.612254108803 0.852363496370 0.491576395672 
0.387745891197 0.647636503630 0.991576395672 
0.112254108803 0.897636503630 0.491576395672 
0.887745891197 0.602363496370 0.991576395672 
0.769075420457 0.770840626070 0.605905813751 
0.230924579543 0.729159373930 0.105905813751 
0.269075420457 0.979159373930 0.605905813751 
0.730924579543 0.520840626070 0.105905813751 
0.746503997082 0.739607311412 0.378210926903 
0.253496002918 0.760392688588 0.878210926903 
0.246503997082 0.510392688588 0.378210926903 
0.753496002918 0.989607311412 0.878210926903 
0.781935748726 0.256671706781 0.862686794496 
0.218064251274 0.243328293219 0.362686794496 
0.281935748726 0.493328293219 0.862686794496 
0.718064251274 0.006671706781 0.362686794496 
0.753550301749 0.251002651649 0.118895871374 
0.246449698251 0.248997348351 0.618895871374 
0.253550301749 0.498997348351 0.118895871374 
0.746449698251 0.001002651649 0.618895871374 
0.781935748726 0.756671706781 0.862686794496 
0.218064251274 0.743328293219 0.362686794496 
0.281935748726 0.993328293219 0.862686794496 
0.718064251274 0.506671706781 0.362686794496 
0.753550301749 0.751002651649 0.118895871374 
0.246449698251 0.748997348351 0.618895871374 
0.253550301749 0.998997348351 0.118895871374 
0.746449698251 0.501002651649 0.618895871374 
xcart  10.748118124258 4.894288024946 2.919654932070 
1.883924459076 1.344625183387 8.211146140403 
4.432096832591 4.464081787554 2.919654932070 
8.199945750742 1.774831420779 8.211146140403 
7.578918039825 4.858662809117 0.709030346998 
5.053124543508 1.380250399217 6.000521555332 
1.262896748158 4.499707003383 0.709030346998 
11.369145835175 1.739206204950 6.000521555332 
10.748118124258 11.133201233279 2.919654932070 
1.883924459076 7.583538391721 8.211146140403 
4.432096832591 10.702994995887 2.919654932070 
8.199945750742 8.013744629113 8.211146140403 
7.578918039825 11.097576017450 0.709030346998 
5.053124543508 7.619163607550 6.000521555332 
1.262896748158 10.738620211717 0.709030346998 
11.369145835175 7.978119413283 6.000521555332 
11.152132548728 3.196043422671 0.073533744240 
1.479910034606 3.042869785662 5.365024952573 
4.836111257061 6.162326389829 0.073533744240 
7.795931326272 0.076586818504 5.365024952573 
9.271458814779 1.614831806673 2.576270459739 
3.360583768555 4.624081401660 7.867761668072 
2.955437523112 1.504624797494 2.576270459739 
9.676605060221 4.734288410840 7.867761668072 
11.152132548728 9.434956631004 0.073533744240 
1.479910034606 9.281782993996 5.365024952573 
4.836111257061 12.401239598162 0.073533744240 
7.795931326272 6.315500026838 5.365024952573 
9.271458814779 7.853745015006 2.576270459739 
3.360583768555 10.862994609994 7.867761668072 
2.955437523112 7.743538005827 2.576270459739 
9.676605060221 10.973201619173 7.867761668072 
12.438123164331 2.092726802797 2.817917260870 
0.193919419002 4.146186405537 8.109408469204 
6.122101872665 1.026729801370 2.817917260870 
6.509940710669 5.212183406963 8.109408469204 
8.658615530799 3.210602817048 5.303673155382 
3.973427052535 3.028310391286 0.012181947048 
2.342594239132 6.147766995452 5.303673155382 
10.289448344201 0.091146212881 0.012181947048 
12.438123164331 8.331640011130 2.817917260870 
0.193919419002 10.385099613870 8.109408469204 
6.122101872665 7.265643009703 2.817917260870 
6.509940710669 11.451096615297 8.109408469204 
8.658615530799 9.449516025381 5.303673155382 
3.973427052535 9.267223599619 0.012181947048 
2.342594239132 12.386680203786 5.303673155382 
10.289448344201 6.330059421214 0.012181947048 
12.258854189817 3.227430671071 1.797729400486 
0.373188393516 3.011482537262 7.089220608820 
5.942832898151 6.130939141429 1.797729400486 
6.689209685183 0.107974066904 7.089220608820 
12.548570023281 2.770681081599 4.197294317821 
0.083472560053 3.468232126734 9.488785526154 
6.232548731614 0.348775522568 4.197294317821 
6.399493851719 5.890137685766 9.488785526154 
11.209295573436 1.185562476223 2.851615840605 
1.422747009898 5.053350732110 8.143107048938 
4.893274281769 1.933894127944 2.851615840605 
7.738768301564 4.305019080390 8.143107048938 
1.014253912592 1.235549360646 2.485826957810 
11.617788670742 5.003363847688 7.777318166143 
7.330275204258 1.883907243521 2.485826957810 
5.301767379075 4.355005964812 7.777318166143 
7.799999262939 2.012251687360 5.687706960453 
4.832043320395 4.226661520973 0.396215752120 
1.483977971272 1.107204916807 5.687706960453 
11.148064612061 5.131708291527 0.396215752120 
7.734019974220 4.396730543275 5.202344351845 
4.898022609113 1.842182665059 10.493835560178 
1.417998682554 4.961639269225 5.202344351845 
11.214043900780 1.277273939108 10.493835560178 
9.714993461008 3.379502318683 6.412290573083 
2.917049122326 2.859410889651 1.120799364750 
3.398972169341 5.978867493817 6.412290573083 
9.233070413992 0.260045714516 1.120799364750 
9.429870279768 2.989778439963 4.002599589206 
3.202172303565 3.249134768370 9.294090797539 
3.113848988102 0.129678164204 4.002599589206 
9.518193595232 6.109235044130 9.294090797539 
12.258854189817 9.466343879404 1.797729400486 
0.373188393516 9.250395745596 7.089220608820 
5.942832898151 12.369852349762 1.797729400486 
6.689209685183 6.346887275238 7.089220608820 
12.548570023281 9.009594289932 4.197294317821 
0.083472560053 9.707145335068 9.488785526154 
6.232548731614 6.587688730901 4.197294317821 
6.399493851719 12.129050894099 9.488785526154 
11.209295573436 7.424475684556 2.851615840605 
1.422747009898 11.292263940444 8.143107048938 
4.893274281769 8.172807336277 2.851615840605 
7.738768301564 10.543932288723 8.143107048938 
1.014253912592 7.474462568979 2.485826957810 
11.617788670742 11.242277056021 7.777318166143 
7.330275204258 8.122820451854 2.485826957810 
5.301767379075 10.593919173146 7.777318166143 
7.799999262939 8.251164895693 5.687706960453 
4.832043320395 10.465574729307 0.396215752120 
1.483977971272 7.346118125140 5.687706960453 
11.148064612061 11.370621499860 0.396215752120 
7.734019974220 10.635643751608 5.202344351845 
4.898022609113 8.081095873392 10.493835560178 
1.417998682554 11.200552477559 5.202344351845 
11.214043900780 7.516187147441 10.493835560178 
9.714993461008 9.618415527016 6.412290573083 
2.917049122326 9.098324097984 1.120799364750 
3.398972169341 12.217780702151 6.412290573083 
9.233070413992 6.498958922849 1.120799364750 
9.429870279768 9.228691648296 4.002599589206 
3.202172303565 9.488047976704 9.294090797539 
3.113848988102 6.368591372537 4.002599589206 
9.518193595232 12.348148252463 9.294090797539 
9.877445675337 3.202705003283 9.129799177242 
2.754596907996 3.036208205050 3.838307968908 
3.561424383671 6.155664809217 9.129799177242 
9.070618199663 0.083248399116 3.838307968908 
9.518879500377 3.131967517399 1.258272916165 
3.113163082956 3.106945690934 6.549764124499 
3.202858208710 6.226402295101 1.258272916165 
9.429184374623 0.012510913233 6.549764124499 
9.877445675337 9.441618211616 9.129799177242 
2.754596907996 9.275121413384 3.838307968908 
3.561424383671 12.394578017550 9.129799177242 
9.070618199663 6.322161607450 3.838307968908 
9.518879500377 9.370880725733 1.258272916165 
3.113163082956 9.345858899267 6.549764124499 
3.202858208710 12.465315503434 1.258272916165 
9.429184374623 6.251424121566 6.549764124499 
