des obtained from _NaVPO4F_su_s10_1u_100_end by uniform scaling by 3.8888888888888893 %
len_units Angstrom
hex_a None
hex_c None
gbpos None
version 9
acell 1 1 1
natom  128
ntypat 5
znucl  11 23 15 8 9 
typat  1 1 1 1 1 1 1 1 1 1 1 1 1 1 1 1 2 2 2 2 
2 2 2 2 2 2 2 2 2 2 2 2 3 3 3 3 3 3 3 3 
3 3 3 3 3 3 3 3 4 4 4 4 4 4 4 4 4 4 4 4 
4 4 4 4 4 4 4 4 4 4 4 4 4 4 4 4 4 4 4 4 
4 4 4 4 4 4 4 4 4 4 4 4 4 4 4 4 4 4 4 4 
4 4 4 4 4 4 4 4 4 4 4 4 5 5 5 5 5 5 5 5 
5 5 5 5 5 5 5 5 
rprim  13.345717305556 0.000000000000 0.000000000000 
0.000000000000 13.182788361111 0.000000000000 
0.000000000000 0.000000000000 11.180891027778 
xred  0.850861454381 0.392238829225 0.275882054521 
0.149138545619 0.107761170775 0.775882054521 
0.350861454381 0.357761170775 0.275882054521 
0.649138545619 0.142238829225 0.775882054521 
0.599975656338 0.389383747367 0.066997214876 
0.400024343662 0.110616252633 0.566997214876 
0.099975656338 0.360616252633 0.066997214876 
0.900024343662 0.139383747367 0.566997214876 
0.850861454381 0.892238829225 0.275882054521 
0.149138545619 0.607761170775 0.775882054521 
0.350861454381 0.857761170775 0.275882054521 
0.649138545619 0.642238829225 0.775882054521 
0.599975656338 0.889383747367 0.066997214876 
0.400024343662 0.610616252633 0.566997214876 
0.099975656338 0.860616252633 0.066997214876 
0.900024343662 0.639383747367 0.566997214876 
0.882844755720 0.256137833301 0.006948300710 
0.117155244280 0.243862166699 0.506948300710 
0.382844755720 0.493862166699 0.006948300710 
0.617155244280 0.006137833301 0.506948300710 
0.733963549728 0.129416114053 0.243435201752 
0.266036450272 0.370583885947 0.743435201752 
0.233963549728 0.120583885947 0.243435201752 
0.766036450272 0.379416114053 0.743435201752 
0.882844755720 0.756137833301 0.006948300710 
0.117155244280 0.743862166699 0.506948300710 
0.382844755720 0.993862166699 0.006948300710 
0.617155244280 0.506137833301 0.506948300710 
0.733963549728 0.629416114053 0.243435201752 
0.266036450272 0.870583885947 0.743435201752 
0.233963549728 0.620583885947 0.243435201752 
0.766036450272 0.879416114053 0.743435201752 
0.984648609461 0.167715652784 0.266268727465 
0.015351390539 0.332284347216 0.766268727465 
0.484648609461 0.082284347216 0.266268727465 
0.515351390539 0.417715652784 0.766268727465 
0.685448570465 0.257304654660 0.501151088282 
0.314551429535 0.242695345340 0.001151088282 
0.185448570465 0.492695345340 0.501151088282 
0.814551429535 0.007304654660 0.001151088282 
0.984648609461 0.667715652784 0.266268727465 
0.015351390539 0.832284347216 0.766268727465 
0.484648609461 0.582284347216 0.266268727465 
0.515351390539 0.917715652784 0.766268727465 
0.685448570465 0.757304654660 0.501151088282 
0.314551429535 0.742695345340 0.001151088282 
0.185448570465 0.992695345340 0.501151088282 
0.814551429535 0.507304654660 0.001151088282 
0.970457003208 0.258653275282 0.169869827777 
0.029542996792 0.241346724718 0.669869827777 
0.470457003208 0.491346724718 0.169869827777 
0.529542996792 0.008653275282 0.669869827777 
0.993391998206 0.222048375180 0.396607889210 
0.006608001794 0.277951624820 0.896607889210 
0.493391998206 0.027951624820 0.396607889210 
0.506608001794 0.472048375180 0.896607889210 
0.887369995746 0.095013541352 0.269452950816 
0.112630004254 0.404986458648 0.769452950816 
0.387369995746 0.154986458648 0.269452950816 
0.612630004254 0.345013541352 0.769452950816 
0.080292154329 0.099019598397 0.234889075682 
0.919707845671 0.400980401603 0.734889075682 
0.580292154329 0.150980401603 0.234889075682 
0.419707845671 0.349019598397 0.734889075682 
0.617477277446 0.161266202956 0.537438950243 
0.382522722554 0.338733797044 0.037438950243 
0.117477277446 0.088733797044 0.537438950243 
0.882522722554 0.411266202956 0.037438950243 
0.612254108803 0.352363496370 0.491576395672 
0.387745891197 0.147636503630 0.991576395672 
0.112254108803 0.397636503630 0.491576395672 
0.887745891197 0.102363496370 0.991576395672 
0.769075420457 0.270840626070 0.605905813751 
0.230924579543 0.229159373930 0.105905813751 
0.269075420457 0.479159373930 0.605905813751 
0.730924579543 0.020840626070 0.105905813751 
0.746503997082 0.239607311412 0.378210926903 
0.253496002918 0.260392688588 0.878210926903 
0.246503997082 0.010392688588 0.378210926903 
0.753496002918 0.489607311412 0.878210926903 
0.970457003208 0.758653275282 0.169869827777 
0.029542996792 0.741346724718 0.669869827777 
0.470457003208 0.991346724718 0.169869827777 
0.529542996792 0.508653275282 0.669869827777 
0.993391998206 0.722048375180 0.396607889210 
0.006608001794 0.777951624820 0.896607889210 
0.493391998206 0.527951624820 0.396607889210 
0.506608001794 0.972048375180 0.896607889210 
0.887369995746 0.595013541352 0.269452950816 
0.112630004254 0.904986458648 0.769452950816 
0.387369995746 0.654986458648 0.269452950816 
0.612630004254 0.845013541352 0.769452950816 
0.080292154329 0.599019598397 0.234889075682 
0.919707845671 0.900980401603 0.734889075682 
0.580292154329 0.650980401603 0.234889075682 
0.419707845671 0.849019598397 0.734889075682 
0.617477277446 0.661266202956 0.537438950243 
0.382522722554 0.838733797044 0.037438950243 
0.117477277446 0.588733797044 0.537438950243 
0.882522722554 0.911266202956 0.037438950243 
0.612254108803 0.852363496370 0.491576395672 
0.387745891197 0.647636503630 0.991576395672 
0.112254108803 0.897636503630 0.491576395672 
0.887745891197 0.602363496370 0.991576395672 
0.769075420457 0.770840626070 0.605905813751 
0.230924579543 0.729159373930 0.105905813751 
0.269075420457 0.979159373930 0.605905813751 
0.730924579543 0.520840626070 0.105905813751 
0.746503997082 0.739607311412 0.378210926903 
0.253496002918 0.760392688588 0.878210926903 
0.246503997082 0.510392688588 0.378210926903 
0.753496002918 0.989607311412 0.878210926903 
0.781935748726 0.256671706781 0.862686794496 
0.218064251274 0.243328293219 0.362686794496 
0.281935748726 0.493328293219 0.862686794496 
0.718064251274 0.006671706781 0.362686794496 
0.753550301749 0.251002651649 0.118895871374 
0.246449698251 0.248997348351 0.618895871374 
0.253550301749 0.498997348351 0.118895871374 
0.746449698251 0.001002651649 0.618895871374 
0.781935748726 0.756671706781 0.862686794496 
0.218064251274 0.743328293219 0.362686794496 
0.281935748726 0.993328293219 0.862686794496 
0.718064251274 0.506671706781 0.362686794496 
0.753550301749 0.751002651649 0.118895871374 
0.246449698251 0.748997348351 0.618895871374 
0.253550301749 0.998997348351 0.118895871374 
0.746449698251 0.501002651649 0.618895871374 
xcart  11.355356436363 5.170801472683 3.084607188119 
1.990360869193 1.420592707872 8.675052702008 
4.682497783585 4.716289798150 3.084607188119 
8.663219521971 1.875104382405 8.675052702008 
8.007105499702 5.133163532796 0.749088558693 
5.338611805853 1.458230647760 6.339534072582 
1.334246846924 4.753927738038 0.749088558693 
12.011470458631 1.837466442518 6.339534072582 
11.355356436363 11.762195653239 3.084607188119 
1.990360869193 8.011986888428 8.675052702008 
4.682497783585 11.307683978706 3.084607188119 
8.663219521971 8.466498562961 8.675052702008 
8.007105499702 11.724557713351 0.749088558693 
5.338611805853 8.049624828316 6.339534072582 
1.334246846924 11.345321918593 0.749088558693 
12.011470458631 8.428860623073 6.339534072582 
11.782196534531 3.376610847681 0.077688193067 
1.563520771024 3.214783332875 5.668133706956 
5.109337881754 6.510480423153 0.077688193067 
8.236379423802 0.080913757403 5.668133706956 
9.795270047252 1.706065242078 2.721822463114 
3.550447258304 4.885328938477 8.312267977003 
3.122411394474 1.589631848200 2.721822463114 
10.223305911081 5.001762332356 8.312267977003 
11.782196534531 9.968005028236 0.077688193067 
1.563520771024 9.806177513431 5.668133706956 
5.109337881754 13.101874603708 0.077688193067 
8.236379423802 6.672307937958 5.668133706956 
9.795270047252 8.297459422634 2.721822463114 
3.550447258304 11.476723119033 8.312267977003 
3.122411394474 8.181026028755 2.721822463114 
10.223305911081 11.593156512911 8.312267977003 
13.140841987175 2.210959955497 2.977121625891 
0.204875318381 4.380434225059 8.567567139780 
6.467983334397 1.084737134781 2.977121625891 
6.877733971158 5.506657045775 8.567567139780 
9.147802848923 3.391992806712 5.603315706533 
4.197914456633 3.199401373844 0.012870192644 
2.474944196145 6.495098464122 5.603315706533 
10.870773109410 0.096295716434 0.012870192644 
13.140841987175 8.802354136053 2.977121625891 
0.204875318381 10.971828405614 8.567567139780 
6.467983334397 7.676131315336 2.977121625891 
6.877733971158 12.098051226330 8.567567139780 
9.147802848923 9.983386987267 5.603315706533 
4.197914456633 9.790795554400 0.012870192644 
2.474944196145 13.086492644677 5.603315706533 
10.870773109410 6.687689896989 0.012870192644 
12.951444822011 3.409771386951 1.899296033282 
0.394272483545 3.181622793605 7.489741547171 
6.278586169233 6.477319883883 1.899296033282 
7.067131136323 0.114074296673 7.489741547171 
13.257528781658 2.927216735927 4.434429590014 
0.088188523897 3.664177444629 10.024875103903 
6.584670128880 0.368480354351 4.434429590014 
6.761047176675 6.222913826204 10.024875103903 
11.842589108658 1.252543407083 3.012724080187 
1.503128196897 5.338850773472 8.603169594076 
5.169730455880 2.043153683195 3.012724080187 
8.175986849675 4.548240497361 8.603169594076 
1.071556393529 1.305354409270 2.626269158816 
12.274160912027 5.286039771286 8.216714672705 
7.744415046307 1.990342681008 2.626269158816 
5.601302259249 4.601051499548 8.216714672705 
8.240677187398 2.125938223369 6.009046336750 
5.105040118157 4.465455957187 0.418600822861 
1.567818534621 1.169758866909 6.009046336750 
11.777898770935 5.421635313647 0.418600822861 
8.170970255250 4.645133398827 5.496262111836 
5.174747050306 1.946260781729 11.086707625725 
1.498111602472 5.241957872006 5.496262111836 
11.847605703084 1.349436308549 11.086707625725 
10.263863148070 3.570434653072 6.774566876647 
3.081854157485 3.020959527484 1.184121362758 
3.591004495293 6.316656617762 6.774566876647 
9.754712810263 0.274737562794 1.184121362758 
9.962631312524 3.158692476119 4.228735159217 
3.383085993032 3.432701704436 9.819180673106 
3.289772659746 0.137004614159 4.228735159217 
10.055944645810 6.454389566397 9.819180673106 
12.951444822011 10.001165567506 1.899296033282 
0.394272483545 9.773016974160 7.489741547171 
6.278586169233 13.068714064438 1.899296033282 
7.067131136323 6.705468477229 7.489741547171 
13.257528781658 9.518610916482 4.434429590014 
0.088188523897 10.255571625185 10.024875103903 
6.584670128880 6.959874534907 4.434429590014 
6.761047176675 12.814308006760 10.024875103903 
11.842589108658 7.843937587639 3.012724080187 
1.503128196897 11.930244954028 8.603169594076 
5.169730455880 8.634547863750 3.012724080187 
8.175986849675 11.139634677916 8.603169594076 
1.071556393529 7.896748589825 2.626269158816 
12.274160912027 11.877433951841 8.216714672705 
7.744415046307 8.581736861563 2.626269158816 
5.601302259249 11.192445680103 8.216714672705 
8.240677187398 8.717332403924 6.009046336750 
5.105040118157 11.056850137742 0.418600822861 
1.567818534621 7.761153047464 6.009046336750 
11.777898770935 12.013029494202 0.418600822861 
8.170970255250 11.236527579382 5.496262111836 
5.174747050306 8.537654962284 11.086707625725 
1.498111602472 11.833352052562 5.496262111836 
11.847605703084 7.940830489105 11.086707625725 
10.263863148070 10.161828833627 6.774566876647 
3.081854157485 9.612353708040 1.184121362758 
3.591004495293 12.908050798317 6.774566876647 
9.754712810263 6.866131743349 1.184121362758 
9.962631312524 9.750086656675 4.228735159217 
3.383085993032 10.024095884992 9.819180673106 
3.289772659746 6.728398794714 4.228735159217 
10.055944645810 13.045783746953 9.819180673106 
10.435493453605 3.383648788779 9.645607040363 
2.910223851950 3.207745391776 4.055161526474 
3.762634800827 6.503442482054 9.645607040363 
9.583082504728 0.087951698501 4.055161526474 
10.056669302658 3.308914834767 1.329361781485 
3.289048002897 3.282479345789 6.919807295374 
3.383810649880 6.578176436067 1.329361781485 
9.961906655675 0.013217744489 6.919807295374 
10.435493453605 9.975042969335 9.645607040363 
2.910223851950 9.799139572332 4.055161526474 
3.762634800827 13.094836662610 9.645607040363 
9.583082504728 6.679345879057 4.055161526474 
10.056669302658 9.900309015322 1.329361781485 
3.289048002897 9.873873526345 6.919807295374 
3.383810649880 13.169570616622 1.329361781485 
9.961906655675 6.604611925044 6.919807295374 
