des obtained from _NaVPO4F_su_s10_1u_100_end by uniform scaling by 2.7777777777777786 %
len_units Angstrom
hex_a None
hex_c None
gbpos None
version 8
acell 1 1 1
natom  128
ntypat 5
znucl  11 23 15 8 9 
typat  1 1 1 1 1 1 1 1 1 1 1 1 1 1 1 1 2 2 2 2 
2 2 2 2 2 2 2 2 2 2 2 2 3 3 3 3 3 3 3 3 
3 3 3 3 3 3 3 3 4 4 4 4 4 4 4 4 4 4 4 4 
4 4 4 4 4 4 4 4 4 4 4 4 4 4 4 4 4 4 4 4 
4 4 4 4 4 4 4 4 4 4 4 4 4 4 4 4 4 4 4 4 
4 4 4 4 4 4 4 4 4 4 4 4 5 5 5 5 5 5 5 5 
5 5 5 5 5 5 5 5 
rprim  13.202982361111 0.000000000000 0.000000000000 
0.000000000000 13.041795972222 0.000000000000 
0.000000000000 0.000000000000 11.061309305556 
xred  0.850861454381 0.392238829225 0.275882054521 
0.149138545619 0.107761170775 0.775882054521 
0.350861454381 0.357761170775 0.275882054521 
0.649138545619 0.142238829225 0.775882054521 
0.599975656338 0.389383747367 0.066997214876 
0.400024343662 0.110616252633 0.566997214876 
0.099975656338 0.360616252633 0.066997214876 
0.900024343662 0.139383747367 0.566997214876 
0.850861454381 0.892238829225 0.275882054521 
0.149138545619 0.607761170775 0.775882054521 
0.350861454381 0.857761170775 0.275882054521 
0.649138545619 0.642238829225 0.775882054521 
0.599975656338 0.889383747367 0.066997214876 
0.400024343662 0.610616252633 0.566997214876 
0.099975656338 0.860616252633 0.066997214876 
0.900024343662 0.639383747367 0.566997214876 
0.882844755720 0.256137833301 0.006948300710 
0.117155244280 0.243862166699 0.506948300710 
0.382844755720 0.493862166699 0.006948300710 
0.617155244280 0.006137833301 0.506948300710 
0.733963549728 0.129416114053 0.243435201752 
0.266036450272 0.370583885947 0.743435201752 
0.233963549728 0.120583885947 0.243435201752 
0.766036450272 0.379416114053 0.743435201752 
0.882844755720 0.756137833301 0.006948300710 
0.117155244280 0.743862166699 0.506948300710 
0.382844755720 0.993862166699 0.006948300710 
0.617155244280 0.506137833301 0.506948300710 
0.733963549728 0.629416114053 0.243435201752 
0.266036450272 0.870583885947 0.743435201752 
0.233963549728 0.620583885947 0.243435201752 
0.766036450272 0.879416114053 0.743435201752 
0.984648609461 0.167715652784 0.266268727465 
0.015351390539 0.332284347216 0.766268727465 
0.484648609461 0.082284347216 0.266268727465 
0.515351390539 0.417715652784 0.766268727465 
0.685448570465 0.257304654660 0.501151088282 
0.314551429535 0.242695345340 0.001151088282 
0.185448570465 0.492695345340 0.501151088282 
0.814551429535 0.007304654660 0.001151088282 
0.984648609461 0.667715652784 0.266268727465 
0.015351390539 0.832284347216 0.766268727465 
0.484648609461 0.582284347216 0.266268727465 
0.515351390539 0.917715652784 0.766268727465 
0.685448570465 0.757304654660 0.501151088282 
0.314551429535 0.742695345340 0.001151088282 
0.185448570465 0.992695345340 0.501151088282 
0.814551429535 0.507304654660 0.001151088282 
0.970457003208 0.258653275282 0.169869827777 
0.029542996792 0.241346724718 0.669869827777 
0.470457003208 0.491346724718 0.169869827777 
0.529542996792 0.008653275282 0.669869827777 
0.993391998206 0.222048375180 0.396607889210 
0.006608001794 0.277951624820 0.896607889210 
0.493391998206 0.027951624820 0.396607889210 
0.506608001794 0.472048375180 0.896607889210 
0.887369995746 0.095013541352 0.269452950816 
0.112630004254 0.404986458648 0.769452950816 
0.387369995746 0.154986458648 0.269452950816 
0.612630004254 0.345013541352 0.769452950816 
0.080292154329 0.099019598397 0.234889075682 
0.919707845671 0.400980401603 0.734889075682 
0.580292154329 0.150980401603 0.234889075682 
0.419707845671 0.349019598397 0.734889075682 
0.617477277446 0.161266202956 0.537438950243 
0.382522722554 0.338733797044 0.037438950243 
0.117477277446 0.088733797044 0.537438950243 
0.882522722554 0.411266202956 0.037438950243 
0.612254108803 0.352363496370 0.491576395672 
0.387745891197 0.147636503630 0.991576395672 
0.112254108803 0.397636503630 0.491576395672 
0.887745891197 0.102363496370 0.991576395672 
0.769075420457 0.270840626070 0.605905813751 
0.230924579543 0.229159373930 0.105905813751 
0.269075420457 0.479159373930 0.605905813751 
0.730924579543 0.020840626070 0.105905813751 
0.746503997082 0.239607311412 0.378210926903 
0.253496002918 0.260392688588 0.878210926903 
0.246503997082 0.010392688588 0.378210926903 
0.753496002918 0.489607311412 0.878210926903 
0.970457003208 0.758653275282 0.169869827777 
0.029542996792 0.741346724718 0.669869827777 
0.470457003208 0.991346724718 0.169869827777 
0.529542996792 0.508653275282 0.669869827777 
0.993391998206 0.722048375180 0.396607889210 
0.006608001794 0.777951624820 0.896607889210 
0.493391998206 0.527951624820 0.396607889210 
0.506608001794 0.972048375180 0.896607889210 
0.887369995746 0.595013541352 0.269452950816 
0.112630004254 0.904986458648 0.769452950816 
0.387369995746 0.654986458648 0.269452950816 
0.612630004254 0.845013541352 0.769452950816 
0.080292154329 0.599019598397 0.234889075682 
0.919707845671 0.900980401603 0.734889075682 
0.580292154329 0.650980401603 0.234889075682 
0.419707845671 0.849019598397 0.734889075682 
0.617477277446 0.661266202956 0.537438950243 
0.382522722554 0.838733797044 0.037438950243 
0.117477277446 0.588733797044 0.537438950243 
0.882522722554 0.911266202956 0.037438950243 
0.612254108803 0.852363496370 0.491576395672 
0.387745891197 0.647636503630 0.991576395672 
0.112254108803 0.897636503630 0.491576395672 
0.887745891197 0.602363496370 0.991576395672 
0.769075420457 0.770840626070 0.605905813751 
0.230924579543 0.729159373930 0.105905813751 
0.269075420457 0.979159373930 0.605905813751 
0.730924579543 0.520840626070 0.105905813751 
0.746503997082 0.739607311412 0.378210926903 
0.253496002918 0.760392688588 0.878210926903 
0.246503997082 0.510392688588 0.378210926903 
0.753496002918 0.989607311412 0.878210926903 
0.781935748726 0.256671706781 0.862686794496 
0.218064251274 0.243328293219 0.362686794496 
0.281935748726 0.493328293219 0.862686794496 
0.718064251274 0.006671706781 0.362686794496 
0.753550301749 0.251002651649 0.118895871374 
0.246449698251 0.248997348351 0.618895871374 
0.253550301749 0.498997348351 0.118895871374 
0.746449698251 0.001002651649 0.618895871374 
0.781935748726 0.756671706781 0.862686794496 
0.218064251274 0.743328293219 0.362686794496 
0.281935748726 0.993328293219 0.862686794496 
0.718064251274 0.506671706781 0.362686794496 
0.753550301749 0.751002651649 0.118895871374 
0.246449698251 0.748997348351 0.618895871374 
0.253550301749 0.998997348351 0.118895871374 
0.746449698251 0.501002651649 0.618895871374 
xcart  11.233908773942 5.115498783136 3.051616736909 
1.969073587169 1.405399202975 8.582271389687 
4.632417593386 4.665848196031 3.051616736909 
8.570564767725 1.855049790080 8.582271389687 
7.921468007727 5.078263388060 0.741076916354 
5.281514353384 1.442634598051 6.271731569132 
1.319976827171 4.703083591107 0.741076916354 
11.883005533940 1.817814395004 6.271731569132 
11.233908773942 11.636396769247 3.051616736909 
1.969073587169 7.926297189086 8.582271389687 
4.632417593386 11.186746182142 3.051616736909 
8.570564767725 8.375947776191 8.582271389687 
7.921468007727 11.599161374171 0.741076916354 
5.281514353384 7.963532584162 6.271731569132 
1.319976827171 11.223981577218 0.741076916354 
11.883005533940 8.338712381115 6.271731569132 
11.656183737371 3.340497362679 0.076857303301 
1.546798623740 3.180400623432 5.607511956079 
5.054692556815 6.440849616488 0.076857303301 
8.148289804296 0.080048369623 5.607511956079 
9.690507800757 1.687818554997 2.692712062439 
3.512474560354 4.833079431114 8.223366715217 
3.089016620202 1.572630438058 2.692712062439 
10.113965740909 4.948267548053 8.223366715217 
11.656183737371 9.861395348790 0.076857303301 
1.546798623740 9.701298609544 5.607511956079 
5.054692556815 12.961747602599 0.076857303301 
8.148289804296 6.600946355734 5.607511956079 
9.690507800757 8.208716541108 2.692712062439 
3.512474560354 11.353977417225 8.223366715217 
3.089016620202 8.093528424170 2.692712062439 
10.113965740909 11.469165534164 8.223366715217 
13.000298222606 2.187313324957 2.945280752887 
0.202684138505 4.333584661154 8.475935405665 
6.398807042051 1.073135668099 2.945280752887 
6.804175319061 5.447762318013 8.475935405665 
9.049965385298 3.355714808779 5.543387196303 
4.153016975813 3.165183177332 0.012732543525 
2.448474204743 6.425632170388 5.543387196303 
10.754508156368 0.095265815723 0.012732543525 
13.000298222606 8.708211311068 2.945280752887 
0.202684138505 10.854482647265 8.475935405665 
6.398807042051 7.594033654210 2.945280752887 
6.804175319061 11.968660304124 8.475935405665 
9.049965385298 9.876612794890 5.543387196303 
4.153016975813 9.686081163443 0.012732543525 
2.448474204743 12.946530156499 5.543387196303 
10.754508156368 6.616163801834 0.012732543525 
12.812926695572 3.373303243775 1.878982706723 
0.390055665539 3.147594742336 7.409637359501 
6.211435515016 6.408043735392 1.878982706723 
6.991546846095 0.112854250719 7.409637359501 
13.115737029983 2.895909605061 4.387002535575 
0.087245331128 3.624988381050 9.917657188353 
6.514245849427 0.364539387995 4.387002535575 
6.688736511684 6.156358598117 9.917657188353 
11.715930401614 1.239147220911 2.980502432270 
1.487051959497 5.281750765200 8.511157085048 
5.114439221058 2.021301772144 2.980502432270 
8.088543140053 4.499596213967 8.511157085048 
1.060095897341 1.291393399545 2.598180718615 
12.142886463770 5.229504586566 8.128835371392 
7.661587077897 1.969055593511 2.598180718615 
5.541395283214 4.551842392601 8.128835371392 
8.152541602506 2.103200916167 5.944778461491 
5.050440758605 4.417697069944 0.414123808713 
1.551050421951 1.157248076888 5.944778461491 
11.651931939160 5.363649909223 0.414123808713 
8.083580199044 4.595452827716 5.437478559838 
5.119402162067 1.925445158395 10.968133212616 
1.482089018488 5.185894151450 5.437478559838 
11.720893342623 1.335003834661 10.968133212616 
10.154089210658 3.532248186194 6.702111615934 
3.048893150453 2.988649799917 1.171456963156 
3.552598030102 6.249098792973 6.702111615934 
9.650384331009 0.271799193138 1.171456963156 
9.856079105973 3.124909668888 4.183508045215 
3.346903255139 3.395988317223 9.714162697993 
3.254587925417 0.135539324168 4.183508045215 
9.948394435694 6.385358661944 9.714162697993 
12.812926695572 9.894201229886 1.878982706723 
0.390055665539 9.668492728447 7.409637359501 
6.211435515016 12.928941721503 1.878982706723 
6.991546846095 6.633752236830 7.409637359501 
13.115737029983 9.416807591172 4.387002535575 
0.087245331128 10.145886367161 9.917657188353 
6.514245849427 6.885437374106 4.387002535575 
6.688736511684 12.677256584228 9.917657188353 
11.715930401614 7.760045207022 2.980502432270 
1.487051959497 11.802648751311 8.511157085048 
5.114439221058 8.542199758256 2.980502432270 
8.088543140053 11.020494200078 8.511157085048 
1.060095897341 7.812291385656 2.598180718615 
12.142886463770 11.750402572677 8.128835371392 
7.661587077897 8.489953579622 2.598180718615 
5.541395283214 11.072740378712 8.128835371392 
8.152541602506 8.624098902278 5.944778461491 
5.050440758605 10.938595056055 0.414123808713 
1.551050421951 7.678146063000 5.944778461491 
11.651931939160 11.884547895334 0.414123808713 
8.083580199044 11.116350813828 5.437478559838 
5.119402162067 8.446343144506 10.968133212616 
1.482089018488 11.706792137561 5.437478559838 
11.720893342623 7.855901820772 10.968133212616 
10.154089210658 10.053146172305 6.702111615934 
3.048893150453 9.509547786028 1.171456963156 
3.552598030102 12.769996779084 6.702111615934 
9.650384331009 6.792697179249 1.171456963156 
9.856079105973 9.645807654999 4.183508045215 
3.346903255139 9.916886303334 9.714162697993 
3.254587925417 6.656437310279 4.183508045215 
9.948394435694 12.906256648055 9.714162697993 
10.323883897952 3.347460031680 9.542445467738 
2.879098463160 3.173437954431 4.011790814961 
3.722392717396 6.433886947487 9.542445467738 
9.480589643715 0.087011038624 4.011790814961 
9.949111342202 3.273525371293 1.315144008421 
3.253871018909 3.247372614818 6.845798661199 
3.347620161646 6.507821607874 1.315144008421 
9.855362199465 0.013076378238 6.845798661199 
10.323883897952 9.868358017791 9.542445467738 
2.879098463160 9.694335940542 4.011790814961 
3.722392717396 12.954784933598 9.542445467738 
9.480589643715 6.607909024735 4.011790814961 
9.949111342202 9.794423357404 1.315144008421 
3.253871018909 9.768270600929 6.845798661199 
3.347620161646 13.028719593985 1.315144008421 
9.855362199465 6.533974364349 6.845798661199 
