des obtained from _NaVPO4F_su_s10_1u_100_end by uniform scaling by 0.5555555555555554 %
len_units Angstrom
hex_a None
hex_c None
gbpos None
version 6
acell 1 1 1
natom  128
ntypat 5
znucl  11 23 15 8 9 
typat  1 1 1 1 1 1 1 1 1 1 1 1 1 1 1 1 2 2 2 2 
2 2 2 2 2 2 2 2 2 2 2 2 3 3 3 3 3 3 3 3 
3 3 3 3 3 3 3 3 4 4 4 4 4 4 4 4 4 4 4 4 
4 4 4 4 4 4 4 4 4 4 4 4 4 4 4 4 4 4 4 4 
4 4 4 4 4 4 4 4 4 4 4 4 4 4 4 4 4 4 4 4 
4 4 4 4 4 4 4 4 4 4 4 4 5 5 5 5 5 5 5 5 
5 5 5 5 5 5 5 5 
rprim  12.917512472222 0.000000000000 0.000000000000 
0.000000000000 12.759811194444 0.000000000000 
0.000000000000 0.000000000000 10.822145861111 
xred  0.850861454381 0.392238829225 0.275882054521 
0.149138545619 0.107761170775 0.775882054521 
0.350861454381 0.357761170775 0.275882054521 
0.649138545619 0.142238829225 0.775882054521 
0.599975656338 0.389383747367 0.066997214876 
0.400024343662 0.110616252633 0.566997214876 
0.099975656338 0.360616252633 0.066997214876 
0.900024343662 0.139383747367 0.566997214876 
0.850861454381 0.892238829225 0.275882054521 
0.149138545619 0.607761170775 0.775882054521 
0.350861454381 0.857761170775 0.275882054521 
0.649138545619 0.642238829225 0.775882054521 
0.599975656338 0.889383747367 0.066997214876 
0.400024343662 0.610616252633 0.566997214876 
0.099975656338 0.860616252633 0.066997214876 
0.900024343662 0.639383747367 0.566997214876 
0.882844755720 0.256137833301 0.006948300710 
0.117155244280 0.243862166699 0.506948300710 
0.382844755720 0.493862166699 0.006948300710 
0.617155244280 0.006137833301 0.506948300710 
0.733963549728 0.129416114053 0.243435201752 
0.266036450272 0.370583885947 0.743435201752 
0.233963549728 0.120583885947 0.243435201752 
0.766036450272 0.379416114053 0.743435201752 
0.882844755720 0.756137833301 0.006948300710 
0.117155244280 0.743862166699 0.506948300710 
0.382844755720 0.993862166699 0.006948300710 
0.617155244280 0.506137833301 0.506948300710 
0.733963549728 0.629416114053 0.243435201752 
0.266036450272 0.870583885947 0.743435201752 
0.233963549728 0.620583885947 0.243435201752 
0.766036450272 0.879416114053 0.743435201752 
0.984648609461 0.167715652784 0.266268727465 
0.015351390539 0.332284347216 0.766268727465 
0.484648609461 0.082284347216 0.266268727465 
0.515351390539 0.417715652784 0.766268727465 
0.685448570465 0.257304654660 0.501151088282 
0.314551429535 0.242695345340 0.001151088282 
0.185448570465 0.492695345340 0.501151088282 
0.814551429535 0.007304654660 0.001151088282 
0.984648609461 0.667715652784 0.266268727465 
0.015351390539 0.832284347216 0.766268727465 
0.484648609461 0.582284347216 0.266268727465 
0.515351390539 0.917715652784 0.766268727465 
0.685448570465 0.757304654660 0.501151088282 
0.314551429535 0.742695345340 0.001151088282 
0.185448570465 0.992695345340 0.501151088282 
0.814551429535 0.507304654660 0.001151088282 
0.970457003208 0.258653275282 0.169869827777 
0.029542996792 0.241346724718 0.669869827777 
0.470457003208 0.491346724718 0.169869827777 
0.529542996792 0.008653275282 0.669869827777 
0.993391998206 0.222048375180 0.396607889210 
0.006608001794 0.277951624820 0.896607889210 
0.493391998206 0.027951624820 0.396607889210 
0.506608001794 0.472048375180 0.896607889210 
0.887369995746 0.095013541352 0.269452950816 
0.112630004254 0.404986458648 0.769452950816 
0.387369995746 0.154986458648 0.269452950816 
0.612630004254 0.345013541352 0.769452950816 
0.080292154329 0.099019598397 0.234889075682 
0.919707845671 0.400980401603 0.734889075682 
0.580292154329 0.150980401603 0.234889075682 
0.419707845671 0.349019598397 0.734889075682 
0.617477277446 0.161266202956 0.537438950243 
0.382522722554 0.338733797044 0.037438950243 
0.117477277446 0.088733797044 0.537438950243 
0.882522722554 0.411266202956 0.037438950243 
0.612254108803 0.352363496370 0.491576395672 
0.387745891197 0.147636503630 0.991576395672 
0.112254108803 0.397636503630 0.491576395672 
0.887745891197 0.102363496370 0.991576395672 
0.769075420457 0.270840626070 0.605905813751 
0.230924579543 0.229159373930 0.105905813751 
0.269075420457 0.479159373930 0.605905813751 
0.730924579543 0.020840626070 0.105905813751 
0.746503997082 0.239607311412 0.378210926903 
0.253496002918 0.260392688588 0.878210926903 
0.246503997082 0.010392688588 0.378210926903 
0.753496002918 0.489607311412 0.878210926903 
0.970457003208 0.758653275282 0.169869827777 
0.029542996792 0.741346724718 0.669869827777 
0.470457003208 0.991346724718 0.169869827777 
0.529542996792 0.508653275282 0.669869827777 
0.993391998206 0.722048375180 0.396607889210 
0.006608001794 0.777951624820 0.896607889210 
0.493391998206 0.527951624820 0.396607889210 
0.506608001794 0.972048375180 0.896607889210 
0.887369995746 0.595013541352 0.269452950816 
0.112630004254 0.904986458648 0.769452950816 
0.387369995746 0.654986458648 0.269452950816 
0.612630004254 0.845013541352 0.769452950816 
0.080292154329 0.599019598397 0.234889075682 
0.919707845671 0.900980401603 0.734889075682 
0.580292154329 0.650980401603 0.234889075682 
0.419707845671 0.849019598397 0.734889075682 
0.617477277446 0.661266202956 0.537438950243 
0.382522722554 0.838733797044 0.037438950243 
0.117477277446 0.588733797044 0.537438950243 
0.882522722554 0.911266202956 0.037438950243 
0.612254108803 0.852363496370 0.491576395672 
0.387745891197 0.647636503630 0.991576395672 
0.112254108803 0.897636503630 0.491576395672 
0.887745891197 0.602363496370 0.991576395672 
0.769075420457 0.770840626070 0.605905813751 
0.230924579543 0.729159373930 0.105905813751 
0.269075420457 0.979159373930 0.605905813751 
0.730924579543 0.520840626070 0.105905813751 
0.746503997082 0.739607311412 0.378210926903 
0.253496002918 0.760392688588 0.878210926903 
0.246503997082 0.510392688588 0.378210926903 
0.753496002918 0.989607311412 0.878210926903 
0.781935748726 0.256671706781 0.862686794496 
0.218064251274 0.243328293219 0.362686794496 
0.281935748726 0.493328293219 0.862686794496 
0.718064251274 0.006671706781 0.362686794496 
0.753550301749 0.251002651649 0.118895871374 
0.246449698251 0.248997348351 0.618895871374 
0.253550301749 0.498997348351 0.118895871374 
0.746449698251 0.001002651649 0.618895871374 
0.781935748726 0.756671706781 0.862686794496 
0.218064251274 0.743328293219 0.362686794496 
0.281935748726 0.993328293219 0.862686794496 
0.718064251274 0.506671706781 0.362686794496 
0.753550301749 0.751002651649 0.118895871374 
0.246449698251 0.748997348351 0.618895871374 
0.253550301749 0.998997348351 0.118895871374 
0.746449698251 0.501002651649 0.618895871374 
xcart  10.991013449100 5.004893404041 2.985635834489 
1.926499023123 1.375012193181 8.396708765045 
4.532257212989 4.564964991792 2.985635834489 
8.385255259234 1.814940605430 8.396708765045 
7.750193023776 4.968463098588 0.725053631676 
5.167319448446 1.411442498634 6.136126562232 
1.291436787665 4.601395297245 0.725053631676 
11.626075684557 1.778510299977 6.136126562232 
10.991013449100 11.384799001263 2.985635834489 
1.926499023123 7.754917790404 8.396708765045 
4.532257212989 10.944870589015 2.985635834489 
8.385255259234 8.194846202652 8.396708765045 
7.750193023776 11.348368695810 0.725053631676 
5.167319448446 7.791348095856 6.136126562232 
1.291436787665 10.981300894467 0.725053631676 
11.626075684557 8.158415897199 6.136126562232 
11.404158143049 3.268270392675 0.075195523770 
1.513354329173 3.111635204547 5.486268454326 
4.945401906938 6.301588003159 0.075195523770 
7.972110565284 0.078317594064 5.486268454326 
9.480983307768 1.651325180835 2.634491261089 
3.436529164454 4.728580416387 8.045564191645 
3.022227071657 1.538627617776 2.634491261089 
9.895285400565 4.841277979446 8.045564191645 
11.404158143049 9.648175989897 0.075195523770 
1.513354329173 9.491540801770 5.486268454326 
4.945401906938 12.681493600381 0.075195523770 
7.972110565284 6.458223191286 5.486268454326 
9.480983307768 8.031230778057 2.634491261089 
3.436529164454 11.108486013609 8.045564191645 
3.022227071657 7.918533214998 2.634491261089 
9.895285400565 11.221183576668 8.045564191645 
12.719210693469 2.140020063877 2.881599006879 
0.198301778754 4.239885533345 8.292671937434 
6.260454457358 1.049932734734 2.881599006879 
6.657058014865 5.329972862488 8.292671937434 
8.854290458049 3.283158812913 5.423530175842 
4.063222014174 3.096746784309 0.012457245287 
2.395534221937 6.286699582920 5.423530175842 
10.521978250285 0.093206014302 0.012457245287 
12.719210693469 8.519925661099 2.881599006879 
0.198301778754 10.619791130568 8.292671937434 
6.260454457358 7.429838331957 2.881599006879 
6.657058014865 11.709878459710 8.292671937434 
8.854290458049 9.663064410136 5.423530175842 
4.063222014174 9.476652381531 0.012457245287 
2.395534221937 12.666605180142 5.423530175842 
10.521978250285 6.473111611524 0.012457245287 
12.535890442695 3.300366957423 1.838356053605 
0.381622029528 3.079538639799 7.249428984160 
6.077134206584 6.269491438410 1.838356053605 
6.840378265639 0.110414158812 7.249428984160 
12.832153526632 2.833295343330 4.292148426698 
0.085358945590 3.546610253892 9.703221357254 
6.373397290521 0.356657455281 4.292148426698 
6.544115181702 6.023248141941 9.703221357254 
11.462612987525 1.212354848567 2.916059136438 
1.454899484697 5.167550748655 8.327132066993 
5.003856751414 1.977597950044 2.916059136438 
7.913655720809 4.402307647178 8.327132066993 
1.037174904966 1.263471380095 2.542003838212 
11.880337567256 5.116434217127 7.953076768768 
7.495931141078 1.926481418516 2.542003838212 
5.421581331145 4.453424178707 7.953076768768 
7.976270432723 2.057726301764 5.816242710972 
4.941242039500 4.322179295459 0.405169780417 
1.517514196611 1.132226496848 5.816242710972 
11.399998275611 5.247679100375 0.405169780417 
7.908800086632 4.496091685496 5.319911455842 
5.008712385590 1.883813911727 10.730984386397 
1.450043850521 5.073766710338 5.319911455842 
11.467468621701 1.306138886884 10.730984386397 
9.934541335833 3.455875252438 6.557201094509 
2.982971136389 2.924030344784 1.146128163953 
3.475785099722 6.113983143395 6.557201094509 
9.441727372500 0.265922453827 1.146128163953 
9.642974692870 3.057344054426 4.093053817210 
3.274537779352 3.322561542797 9.504126747766 
3.184218456759 0.132608744186 4.093053817210 
9.733294015463 6.247296853037 9.504126747766 
12.535890442695 9.680272554645 1.838356053605 
0.381622029528 9.459444237021 7.249428984160 
6.077134206584 12.649397035633 1.838356053605 
6.840378265639 6.490319756034 7.249428984160 
12.832153526632 9.213200940552 4.292148426698 
0.085358945590 9.926515851114 9.703221357254 
6.373397290521 6.736563052503 4.292148426698 
6.544115181702 12.403153739163 9.703221357254 
11.462612987525 7.592260445789 2.916059136438 
1.454899484697 11.547456345877 8.327132066993 
5.003856751414 8.357503547266 2.916059136438 
7.913655720809 10.782213244400 8.327132066993 
1.037174904966 7.643376977318 2.542003838212 
11.880337567256 11.496339814349 7.953076768768 
7.495931141078 8.306387015738 2.542003838212 
5.421581331145 10.833329775929 7.953076768768 
7.976270432723 8.437631898986 5.816242710972 
4.941242039500 10.702084892681 0.405169780417 
1.517514196611 7.512132094070 5.816242710972 
11.399998275611 11.627584697597 0.405169780417 
7.908800086632 10.875997282718 5.319911455842 
5.008712385590 8.263719508949 10.730984386397 
1.450043850521 11.453672307560 5.319911455842 
11.467468621701 7.686044484107 10.730984386397 
9.934541335833 9.835780849661 6.557201094509 
2.982971136389 9.303935942006 1.146128163953 
3.475785099722 12.493888740617 6.557201094509 
9.441727372500 6.645828051049 1.146128163953 
9.642974692870 9.437249651648 4.093053817210 
3.274537779352 9.702467140019 9.504126747766 
3.184218456759 6.512514341408 4.093053817210 
9.733294015463 12.627202450259 9.504126747766 
10.100664786645 3.275082517481 9.336122322490 
2.816847685578 3.104823079741 3.925049391935 
3.641908550533 6.294775878352 9.336122322490 
9.275603921689 0.085129718870 3.925049391935 
9.733995421290 3.202746444346 1.286708462293 
3.183517050933 3.177159152876 6.697781392849 
3.275239185178 6.367111951487 1.286708462293 
9.642273287044 0.012793645735 6.697781392849 
10.100664786645 9.654988114704 9.336122322490 
2.816847685578 9.484728676963 3.925049391935 
3.641908550533 12.674681475574 9.336122322490 
9.275603921689 6.465035316092 3.925049391935 
9.733995421290 9.582652041568 1.286708462293 
3.183517050933 9.557064750098 6.697781392849 
3.275239185178 12.747017548709 1.286708462293 
9.642273287044 6.392699242957 6.697781392849 
