i2a=[V,P,O,F] ; _VPO4F_id_su_Na_s10_Na_1u_100_end
 1.000000000000000
 12.695675   0.000000   0.000000
  0.000000  12.364326   0.000000
  0.000000   0.000000  10.648820
V P O F 
16 16 64 16 
Direct
   0.8962606520169986   0.2549136889039971   0.0094472568599997
   0.1037393479830016   0.2450863110960029   0.5094472568599997
   0.3962606520169984   0.4950863110960029   0.0094472568599997
   0.6037393479830017   0.0049136889039971   0.5094472568599997
   0.7416402772620004   0.1279769058999989   0.2502307417509968
   0.2583597227379997   0.3720230941000012   0.7502307417509968
   0.2416402772620003   0.1220230941000011   0.2502307417509968
   0.7583597227379998   0.3779769058999989   0.7502307417509968
   0.8962606520169986   0.7549136889039971   0.0094472568599997
   0.1037393479830016   0.7450863110960029   0.5094472568599997
   0.3962606520169984   0.9950863110960030   0.0094472568599997
   0.6037393479830017   0.5049136889039971   0.5094472568599997
   0.7416402772620004   0.6279769058999989   0.2502307417509968
   0.2583597227379997   0.8720230941000011   0.7502307417509968
   0.2416402772620003   0.6220230941000011   0.2502307417509968
   0.7583597227379998   0.8779769058999989   0.7502307417509968
   0.9923958141130030   0.1654191385979971   0.2609473574770007
   0.0076041858869971   0.3345808614020029   0.7609473574770007
   0.4923958141130029   0.0845808614020029   0.2609473574770007
   0.5076041858869971   0.4154191385979972   0.7609473574770007
   0.6899117445599998   0.2549332202570014   0.5032509333570019
   0.3100882554400002   0.2450667797429986   0.0032509333570019
   0.1899117445599998   0.4950667797429986   0.5032509333570019
   0.8100882554400003   0.0049332202570014   0.0032509333570019
   0.9923958141130030   0.6654191385979972   0.2609473574770007
   0.0076041858869971   0.8345808614020030   0.7609473574770007
   0.4923958141130029   0.5845808614020029   0.2609473574770007
   0.5076041858869971   0.9154191385979972   0.7609473574770007
   0.6899117445599998   0.7549332202570014   0.5032509333570019
   0.3100882554400002   0.7450667797429986   0.0032509333570019
   0.1899117445599998   0.9950667797429987   0.5032509333570019
   0.8100882554400003   0.5049332202570015   0.0032509333570019
   0.9896055399100022   0.2451923139309997   0.1473406241300026
   0.0103944600899979   0.2548076860690003   0.6473406241300026
   0.4896055399100022   0.0048076860690003   0.1473406241300026
   0.5103944600899979   0.4951923139309997   0.6473406241300026
   0.9979434665919983   0.2319076685679988   0.3855310034720034
   0.0020565334080018   0.2680923314320012   0.8855310034720034
   0.4979434665919982   0.0180923314320012   0.3855310034720034
   0.5020565334080018   0.4819076685679988   0.8855310034720034
   0.8921191497840013   0.0950086172190012   0.2650207940260003
   0.1078808502159987   0.4049913827809988   0.7650207940260003
   0.3921191497840014   0.1549913827809988   0.2650207940260003
   0.6078808502159987   0.3450086172190012   0.7650207940260003
   0.0905076221700014   0.0923134474519998   0.2454950242720031
   0.9094923778299987   0.4076865525480002   0.7454950242720031
   0.5905076221700014   0.1576865525480002   0.2454950242720031
   0.4094923778299986   0.3423134474519998   0.7454950242720031
   0.6213731794119967   0.1554117982020031   0.5362295807929982
   0.3786268205880035   0.3445882017979969   0.0362295807929982
   0.1213731794119965   0.0945882017979969   0.5362295807929982
   0.8786268205880036   0.4054117982020031   0.0362295807929982
   0.6164812043439981   0.3531253469730019   0.4817764929140013
   0.3835187956560020   0.1468746530269982   0.9817764929140013
   0.1164812043439980   0.3968746530269983   0.4817764929140013
   0.8835187956560020   0.1031253469730018   0.9817764929140013
   0.7668954573959965   0.2800579285390015   0.6127977620569993
   0.2331045426040035   0.2199420714609985   0.1127977620569993
   0.2668954573959965   0.4699420714609985   0.6127977620569993
   0.7331045426040035   0.0300579285390015   0.1127977620569993
   0.7548236820810033   0.2302871908259974   0.3838339372999968
   0.2451763179189967   0.2697128091740026   0.8838339372999968
   0.2548236820810033   0.0197128091740026   0.3838339372999968
   0.7451763179189967   0.4802871908259974   0.8838339372999968
   0.9896055399100022   0.7451923139309997   0.1473406241300026
   0.0103944600899979   0.7548076860690004   0.6473406241300026
   0.4896055399100022   0.5048076860690004   0.1473406241300026
   0.5103944600899979   0.9951923139309997   0.6473406241300026
   0.9979434665919983   0.7319076685679988   0.3855310034720034
   0.0020565334080018   0.7680923314320012   0.8855310034720034
   0.4979434665919982   0.5180923314320012   0.3855310034720034
   0.5020565334080018   0.9819076685679989   0.8855310034720034
   0.8921191497840013   0.5950086172190012   0.2650207940260003
   0.1078808502159987   0.9049913827809988   0.7650207940260003
   0.3921191497840014   0.6549913827809988   0.2650207940260003
   0.6078808502159987   0.8450086172190013   0.7650207940260003
   0.0905076221700014   0.5923134474519998   0.2454950242720031
   0.9094923778299987   0.9076865525480002   0.7454950242720031
   0.5905076221700014   0.6576865525480002   0.2454950242720031
   0.4094923778299986   0.8423134474519998   0.7454950242720031
   0.6213731794119967   0.6554117982020031   0.5362295807929982
   0.3786268205880035   0.8445882017979970   0.0362295807929982
   0.1213731794119965   0.5945882017979969   0.5362295807929982
   0.8786268205880036   0.9054117982020031   0.0362295807929982
   0.6164812043439981   0.8531253469730018   0.4817764929140013
   0.3835187956560020   0.6468746530269982   0.9817764929140013
   0.1164812043439980   0.8968746530269982   0.4817764929140013
   0.8835187956560020   0.6031253469730018   0.9817764929140013
   0.7668954573959965   0.7800579285390015   0.6127977620569993
   0.2331045426040035   0.7199420714609985   0.1127977620569993
   0.2668954573959965   0.9699420714609986   0.6127977620569993
   0.7331045426040035   0.5300579285390015   0.1127977620569993
   0.7548236820810033   0.7302871908259975   0.3838339372999968
   0.2451763179189967   0.7697128091740026   0.8838339372999968
   0.2548236820810033   0.5197128091740026   0.3838339372999968
   0.7451763179189967   0.9802871908259975   0.8838339372999968
   0.7857559595249982   0.2671956493869985   0.8736691712749973
   0.2142440404750019   0.2328043506130015   0.3736691712749973
   0.2857559595249982   0.4828043506130015   0.8736691712749973
   0.7142440404750019   0.0171956493869985   0.3736691712749973
   0.7716776726480035   0.2387891096189989   0.1271089256759979
   0.2283223273519965   0.2612108903810011   0.6271089256759979
   0.2716776726480035   0.0112108903810011   0.1271089256759979
   0.7283223273519965   0.4887891096189990   0.6271089256759979
   0.7857559595249982   0.7671956493869985   0.8736691712749973
   0.2142440404750019   0.7328043506130015   0.3736691712749973
   0.2857559595249982   0.9828043506130016   0.8736691712749973
   0.7142440404750019   0.5171956493869985   0.3736691712749973
   0.7716776726480035   0.7387891096189989   0.1271089256759979
   0.2283223273519965   0.7612108903810011   0.6271089256759979
   0.2716776726480035   0.5112108903810011   0.1271089256759979
   0.7283223273519965   0.9887891096189989   0.6271089256759979
