i2a=[V,P,O,F,Al] ; _NaVPO4F_su_s10_1u_100_end
 1.000000000000000
 12.846145   0.000000   0.000000
  0.000000  12.689315   0.000000
  0.000000   0.000000  10.762355
V P O F Al 
14 16 64 16 2 
Direct
   0.8828447557200008   0.2561378333009969   0.0069483007100004
   0.1171552442799992   0.2438621666990031   0.5069483007100004
   0.3828447557200008   0.4938621666990031   0.0069483007100004
   0.6171552442799992   0.0061378333009969   0.5069483007100004
   0.7339635497280028   0.1294161140530008   0.2434352017519998
   0.2339635497280028   0.1205838859469992   0.2434352017519998
   0.7660364502719972   0.3794161140530009   0.7434352017519998
   0.8828447557200008   0.7561378333009970   0.0069483007100004
   0.1171552442799992   0.7438621666990031   0.5069483007100004
   0.3828447557200008   0.9938621666990031   0.0069483007100004
   0.6171552442799992   0.5061378333009969   0.5069483007100004
   0.7339635497280028   0.6294161140530009   0.2434352017519998
   0.2660364502719972   0.8705838859469992   0.7434352017519998
   0.7660364502719972   0.8794161140530010   0.7434352017519998
   0.9846486094609972   0.1677156527839969   0.2662687274649969
   0.0153513905390028   0.3322843472160031   0.7662687274649969
   0.4846486094609972   0.0822843472160031   0.2662687274649969
   0.5153513905390028   0.4177156527839970   0.7662687274649969
   0.6854485704649989   0.2573046546599969   0.5011510882820005
   0.3145514295350011   0.2426953453400031   0.0011510882820005
   0.1854485704649989   0.4926953453400031   0.5011510882820005
   0.8145514295350011   0.0073046546599969   0.0011510882820005
   0.9846486094609972   0.6677156527839969   0.2662687274649969
   0.0153513905390028   0.8322843472160032   0.7662687274649969
   0.4846486094609972   0.5822843472160031   0.2662687274649969
   0.5153513905390028   0.9177156527839969   0.7662687274649969
   0.6854485704649989   0.7573046546599969   0.5011510882820005
   0.3145514295350011   0.7426953453400033   0.0011510882820005
   0.1854485704649989   0.9926953453400033   0.5011510882820005
   0.8145514295350011   0.5073046546599969   0.0011510882820005
   0.9704570032079972   0.2586532752820005   0.1698698277769992
   0.0295429967920029   0.2413467247179995   0.6698698277769992
   0.4704570032079971   0.4913467247179995   0.1698698277769992
   0.5295429967920029   0.0086532752820005   0.6698698277769992
   0.9933919982060004   0.2220483751800018   0.3966078892100030
   0.0066080017939996   0.2779516248199982   0.8966078892100028
   0.4933919982060004   0.0279516248199982   0.3966078892100030
   0.5066080017939996   0.4720483751800019   0.8966078892100028
   0.8873699957459991   0.0950135413520030   0.2694529508160031
   0.1126300042540009   0.4049864586479970   0.7694529508160031
   0.3873699957459991   0.1549864586479970   0.2694529508160031
   0.6126300042540009   0.3450135413520030   0.7694529508160031
   0.0802921543290012   0.0990195983969997   0.2348890756819983
   0.9197078456709988   0.4009804016030003   0.7348890756819983
   0.5802921543290012   0.1509804016030003   0.2348890756819983
   0.4197078456709988   0.3490195983969997   0.7348890756819983
   0.6174772774459996   0.1612662029559999   0.5374389502430006
   0.3825227225540004   0.3387337970440001   0.0374389502430006
   0.1174772774459996   0.0887337970440001   0.5374389502430006
   0.8825227225540004   0.4112662029559999   0.0374389502430006
   0.6122541088030005   0.3523634963700033   0.4915763956719985
   0.3877458911969995   0.1476365036299967   0.9915763956719985
   0.1122541088030005   0.3976365036299968   0.4915763956719985
   0.8877458911969995   0.1023634963700033   0.9915763956719985
   0.7690754204569998   0.2708406260699974   0.6059058137510007
   0.2309245795430002   0.2291593739300026   0.1059058137510007
   0.2690754204569998   0.4791593739300026   0.6059058137510007
   0.7309245795430003   0.0208406260699974   0.1059058137510007
   0.7465039970820015   0.2396073114120014   0.3782109269030016
   0.2534960029179985   0.2603926885879986   0.8782109269030016
   0.2465039970820015   0.0103926885879986   0.3782109269030016
   0.7534960029179985   0.4896073114120015   0.8782109269030016
   0.9704570032079972   0.7586532752820005   0.1698698277769992
   0.0295429967920029   0.7413467247179997   0.6698698277769992
   0.4704570032079971   0.9913467247179997   0.1698698277769992
   0.5295429967920029   0.5086532752820007   0.6698698277769992
   0.9933919982060004   0.7220483751800018   0.3966078892100030
   0.0066080017939996   0.7779516248199982   0.8966078892100028
   0.4933919982060004   0.5279516248199982   0.3966078892100030
   0.5066080017939996   0.9720483751800018   0.8966078892100028
   0.8873699957459991   0.5950135413520030   0.2694529508160031
   0.1126300042540009   0.9049864586479970   0.7694529508160031
   0.3873699957459991   0.6549864586479970   0.2694529508160031
   0.6126300042540009   0.8450135413520030   0.7694529508160031
   0.0802921543290012   0.5990195983969997   0.2348890756819983
   0.9197078456709988   0.9009804016030003   0.7348890756819983
   0.5802921543290012   0.6509804016030003   0.2348890756819983
   0.4197078456709988   0.8490195983969998   0.7348890756819983
   0.6174772774459996   0.6612662029559999   0.5374389502430006
   0.3825227225540004   0.8387337970440003   0.0374389502430006
   0.1174772774459996   0.5887337970440002   0.5374389502430006
   0.8825227225540004   0.9112662029559999   0.0374389502430006
   0.6122541088030005   0.8523634963700033   0.4915763956719985
   0.3877458911969995   0.6476365036299967   0.9915763956719985
   0.1122541088030005   0.8976365036299969   0.4915763956719985
   0.8877458911969995   0.6023634963700033   0.9915763956719985
   0.7690754204569998   0.7708406260699976   0.6059058137510007
   0.2309245795430002   0.7291593739300026   0.1059058137510007
   0.2690754204569998   0.9791593739300026   0.6059058137510007
   0.7309245795430003   0.5208406260699974   0.1059058137510007
   0.7465039970820015   0.7396073114120014   0.3782109269030016
   0.2534960029179985   0.7603926885879987   0.8782109269030016
   0.2465039970820015   0.5103926885879986   0.3782109269030016
   0.7534960029179985   0.9896073114120014   0.8782109269030016
   0.7819357487259992   0.2566717067809989   0.8626867944959997
   0.2180642512740008   0.2433282932190011   0.3626867944959997
   0.2819357487259992   0.4933282932190012   0.8626867944959997
   0.7180642512740008   0.0066717067809989   0.3626867944959997
   0.7535503017490015   0.2510026516490029   0.1188958713740007
   0.2464496982509985   0.2489973483509971   0.6188958713740007
   0.2535503017490015   0.4989973483509971   0.1188958713740007
   0.7464496982509985   0.0010026516490029   0.6188958713740007
   0.7819357487259992   0.7566717067809989   0.8626867944959997
   0.2180642512740008   0.7433282932190011   0.3626867944959997
   0.2819357487259992   0.9933282932190011   0.8626867944959997
   0.7180642512740008   0.5066717067809989   0.3626867944959997
   0.7535503017490015   0.7510026516490029   0.1188958713740007
   0.2464496982509985   0.7489973483509971   0.6188958713740007
   0.2535503017490015   0.9989973483509971   0.1188958713740007
   0.7464496982509985   0.5010026516490029   0.6188958713740007
   0.2660364502719972   0.3705838859469992   0.7434352017519998
   0.2339635497280028   0.6205838859469992   0.2434352017519998
