des obtained from _NaVPO4F_su_s10_1u_100_end by uniform scaling by -2.7777777777777777 %
len_units Angstrom
hex_a None
hex_c None
gbpos None
version 3
acell 1 1 1
natom  128
ntypat 5
znucl  11 23 15 8 9 
typat  1 1 1 1 1 1 1 1 1 1 1 1 1 1 1 1 2 2 2 2 
2 2 2 2 2 2 2 2 2 2 2 2 3 3 3 3 3 3 3 3 
3 3 3 3 3 3 3 3 4 4 4 4 4 4 4 4 4 4 4 4 
4 4 4 4 4 4 4 4 4 4 4 4 4 4 4 4 4 4 4 4 
4 4 4 4 4 4 4 4 4 4 4 4 4 4 4 4 4 4 4 4 
4 4 4 4 4 4 4 4 4 4 4 4 5 5 5 5 5 5 5 5 
5 5 5 5 5 5 5 5 
rprim  12.489307638889 0.000000000000 0.000000000000 
0.000000000000 12.336834027778 0.000000000000 
0.000000000000 0.000000000000 10.463400694444 
xred  0.850861454381 0.392238829225 0.275882054521 
0.149138545619 0.107761170775 0.775882054521 
0.350861454381 0.357761170775 0.275882054521 
0.649138545619 0.142238829225 0.775882054521 
0.599975656338 0.389383747367 0.066997214876 
0.400024343662 0.110616252633 0.566997214876 
0.099975656338 0.360616252633 0.066997214876 
0.900024343662 0.139383747367 0.566997214876 
0.850861454381 0.892238829225 0.275882054521 
0.149138545619 0.607761170775 0.775882054521 
0.350861454381 0.857761170775 0.275882054521 
0.649138545619 0.642238829225 0.775882054521 
0.599975656338 0.889383747367 0.066997214876 
0.400024343662 0.610616252633 0.566997214876 
0.099975656338 0.860616252633 0.066997214876 
0.900024343662 0.639383747367 0.566997214876 
0.882844755720 0.256137833301 0.006948300710 
0.117155244280 0.243862166699 0.506948300710 
0.382844755720 0.493862166699 0.006948300710 
0.617155244280 0.006137833301 0.506948300710 
0.733963549728 0.129416114053 0.243435201752 
0.266036450272 0.370583885947 0.743435201752 
0.233963549728 0.120583885947 0.243435201752 
0.766036450272 0.379416114053 0.743435201752 
0.882844755720 0.756137833301 0.006948300710 
0.117155244280 0.743862166699 0.506948300710 
0.382844755720 0.993862166699 0.006948300710 
0.617155244280 0.506137833301 0.506948300710 
0.733963549728 0.629416114053 0.243435201752 
0.266036450272 0.870583885947 0.743435201752 
0.233963549728 0.620583885947 0.243435201752 
0.766036450272 0.879416114053 0.743435201752 
0.984648609461 0.167715652784 0.266268727465 
0.015351390539 0.332284347216 0.766268727465 
0.484648609461 0.082284347216 0.266268727465 
0.515351390539 0.417715652784 0.766268727465 
0.685448570465 0.257304654660 0.501151088282 
0.314551429535 0.242695345340 0.001151088282 
0.185448570465 0.492695345340 0.501151088282 
0.814551429535 0.007304654660 0.001151088282 
0.984648609461 0.667715652784 0.266268727465 
0.015351390539 0.832284347216 0.766268727465 
0.484648609461 0.582284347216 0.266268727465 
0.515351390539 0.917715652784 0.766268727465 
0.685448570465 0.757304654660 0.501151088282 
0.314551429535 0.742695345340 0.001151088282 
0.185448570465 0.992695345340 0.501151088282 
0.814551429535 0.507304654660 0.001151088282 
0.970457003208 0.258653275282 0.169869827777 
0.029542996792 0.241346724718 0.669869827777 
0.470457003208 0.491346724718 0.169869827777 
0.529542996792 0.008653275282 0.669869827777 
0.993391998206 0.222048375180 0.396607889210 
0.006608001794 0.277951624820 0.896607889210 
0.493391998206 0.027951624820 0.396607889210 
0.506608001794 0.472048375180 0.896607889210 
0.887369995746 0.095013541352 0.269452950816 
0.112630004254 0.404986458648 0.769452950816 
0.387369995746 0.154986458648 0.269452950816 
0.612630004254 0.345013541352 0.769452950816 
0.080292154329 0.099019598397 0.234889075682 
0.919707845671 0.400980401603 0.734889075682 
0.580292154329 0.150980401603 0.234889075682 
0.419707845671 0.349019598397 0.734889075682 
0.617477277446 0.161266202956 0.537438950243 
0.382522722554 0.338733797044 0.037438950243 
0.117477277446 0.088733797044 0.537438950243 
0.882522722554 0.411266202956 0.037438950243 
0.612254108803 0.352363496370 0.491576395672 
0.387745891197 0.147636503630 0.991576395672 
0.112254108803 0.397636503630 0.491576395672 
0.887745891197 0.102363496370 0.991576395672 
0.769075420457 0.270840626070 0.605905813751 
0.230924579543 0.229159373930 0.105905813751 
0.269075420457 0.479159373930 0.605905813751 
0.730924579543 0.020840626070 0.105905813751 
0.746503997082 0.239607311412 0.378210926903 
0.253496002918 0.260392688588 0.878210926903 
0.246503997082 0.010392688588 0.378210926903 
0.753496002918 0.489607311412 0.878210926903 
0.970457003208 0.758653275282 0.169869827777 
0.029542996792 0.741346724718 0.669869827777 
0.470457003208 0.991346724718 0.169869827777 
0.529542996792 0.508653275282 0.669869827777 
0.993391998206 0.722048375180 0.396607889210 
0.006608001794 0.777951624820 0.896607889210 
0.493391998206 0.527951624820 0.396607889210 
0.506608001794 0.972048375180 0.896607889210 
0.887369995746 0.595013541352 0.269452950816 
0.112630004254 0.904986458648 0.769452950816 
0.387369995746 0.654986458648 0.269452950816 
0.612630004254 0.845013541352 0.769452950816 
0.080292154329 0.599019598397 0.234889075682 
0.919707845671 0.900980401603 0.734889075682 
0.580292154329 0.650980401603 0.234889075682 
0.419707845671 0.849019598397 0.734889075682 
0.617477277446 0.661266202956 0.537438950243 
0.382522722554 0.838733797044 0.037438950243 
0.117477277446 0.588733797044 0.537438950243 
0.882522722554 0.911266202956 0.037438950243 
0.612254108803 0.852363496370 0.491576395672 
0.387745891197 0.647636503630 0.991576395672 
0.112254108803 0.897636503630 0.491576395672 
0.887745891197 0.602363496370 0.991576395672 
0.769075420457 0.770840626070 0.605905813751 
0.230924579543 0.729159373930 0.105905813751 
0.269075420457 0.979159373930 0.605905813751 
0.730924579543 0.520840626070 0.105905813751 
0.746503997082 0.739607311412 0.378210926903 
0.253496002918 0.760392688588 0.878210926903 
0.246503997082 0.510392688588 0.378210926903 
0.753496002918 0.989607311412 0.878210926903 
0.781935748726 0.256671706781 0.862686794496 
0.218064251274 0.243328293219 0.362686794496 
0.281935748726 0.493328293219 0.862686794496 
0.718064251274 0.006671706781 0.362686794496 
0.753550301749 0.251002651649 0.118895871374 
0.246449698251 0.248997348351 0.618895871374 
0.253550301749 0.498997348351 0.118895871374 
0.746449698251 0.001002651649 0.618895871374 
0.781935748726 0.756671706781 0.862686794496 
0.218064251274 0.743328293219 0.362686794496 
0.281935748726 0.993328293219 0.862686794496 
0.718064251274 0.506671706781 0.362686794496 
0.753550301749 0.751002651649 0.118895871374 
0.246449698251 0.748997348351 0.618895871374 
0.253550301749 0.998997348351 0.118895871374 
0.746449698251 0.501002651649 0.618895871374 
xcart  10.626670461837 4.838985335399 2.886664480860 
1.862637177052 1.329431678490 8.118364828082 
4.382016642392 4.413640185435 2.886664480860 
8.107290996497 1.754776828454 8.118364828082 
7.493280547850 4.803762664381 0.701018704659 
4.996027091039 1.364654349508 5.932719051882 
1.248626728405 4.448862856453 0.701018704659 
11.240680910484 1.719554157436 5.932719051882 
10.626670461837 11.007402349288 2.886664480860 
1.862637177052 7.497848692379 8.118364828082 
4.382016642392 10.582057199324 2.886664480860 
8.107290996497 7.923193842343 8.118364828082 
7.493280547850 10.972179678270 0.701018704659 
4.996027091039 7.533071363397 5.932719051882 
1.248626728405 10.617279870341 0.701018704659 
11.240680910484 7.887971171325 5.932719051882 
11.026119751567 3.159929937669 0.072702854474 
1.463187887322 3.008487076220 5.304403201696 
4.781465932122 6.092695583164 0.072702854474 
7.707841706767 0.075721430725 5.304403201696 
9.166696568284 1.596585119592 2.547160059064 
3.322611070605 4.571831894297 7.778860406286 
2.922042748840 1.487623387353 2.547160059064 
9.567264890049 4.680793626536 7.778860406286 
11.026119751567 9.328346951558 0.072702854474 
1.463187887322 9.176904090109 5.304403201696 
4.781465932122 12.261112597053 0.072702854474 
7.707841706767 6.244138444613 5.304403201696 
9.166696568284 7.765002133481 2.547160059064 
3.322611070605 10.740248908186 7.778860406286 
2.922042748840 7.656040401242 2.547160059064 
9.567264890049 10.849210640425 7.778860406286 
12.297579399763 2.069080172257 2.786076387866 
0.191728239126 4.099336841632 8.017776735088 
6.052925580318 1.015128334688 2.786076387866 
6.436382058571 5.153288679201 8.017776735088 
8.560778067174 3.174324819115 5.243744645151 
3.928529571715 2.994092194774 0.012044297929 
2.316124247730 6.078300701718 5.243744645151 
10.173183391159 0.090116312171 0.012044297929 
12.297579399763 8.237497186145 2.786076387866 
0.191728239126 10.267753855521 8.017776735088 
6.052925580318 7.183545348577 2.786076387866 
6.436382058571 11.321705693090 8.017776735088 
8.560778067174 9.342741833004 5.243744645151 
3.928529571715 9.162509208663 0.012044297929 
2.316124247730 12.246717715607 5.243744645151 
10.173183391159 6.258533326060 0.012044297929 
12.120336063379 3.190962527895 1.777416073927 
0.368971575510 2.977454485994 7.009116421149 
5.875682243934 6.061662992938 1.777416073927 
6.613625394954 0.106754020951 7.009116421149 
12.406778271605 2.739373950733 4.149867263382 
0.082529367284 3.429043063155 9.381567610604 
6.162124452161 0.344834556211 4.149867263382 
6.327183186728 5.823582457678 9.381567610604 
11.082636866391 1.172166290051 2.819394192688 
1.406670772498 4.996250723838 8.051094539910 
4.837983046947 1.912042216893 2.819394192688 
7.651324591942 4.256374796996 8.051094539910 
1.002793416404 1.221588350921 2.457738517608 
11.486514222485 4.946828662968 7.689438864831 
7.247447235848 1.862620156023 2.457738517608 
5.241860403040 4.305796857865 7.689438864831 
7.711863678047 1.989514380158 5.623439085194 
4.777443960842 4.178902633731 0.391738737972 
1.467209858602 1.094694126786 5.623439085194 
11.022097780287 5.073722887103 0.391738737972 
7.646629918014 4.347049972164 5.143560799847 
4.842677720874 1.821367041725 10.375261147069 
1.401976098570 4.905575548669 5.143560799847 
11.087331540319 1.262841465220 10.375261147069 
9.605219523595 3.341315851805 6.339835312370 
2.884088115294 2.827101162084 1.108134965148 
3.360565704151 5.911309669028 6.339835312370 
9.128741934738 0.257107344861 1.108134965148 
9.323318073217 2.955995632732 3.957372475203 
3.165989565672 3.212421381157 9.189072822426 
3.078664253773 0.128212874213 3.957372475203 
9.410643385116 6.040204139676 9.189072822426 
12.120336063379 9.359379541784 1.777416073927 
0.368971575510 9.145871499883 7.009116421149 
5.875682243934 12.230080006827 1.777416073927 
6.613625394954 6.275171034840 7.009116421149 
12.406778271605 8.907790964622 4.149867263382 
0.082529367284 9.597460077044 9.381567610604 
6.162124452161 6.513251570100 4.149867263382 
6.327183186728 11.991999471567 9.381567610604 
11.082636866391 7.340583303940 2.819394192688 
1.406670772498 11.164667737727 8.051094539910 
4.837983046947 8.080459230782 2.819394192688 
7.651324591942 10.424791810884 8.051094539910 
1.002793416404 7.390005364810 2.457738517608 
11.486514222485 11.115245676857 7.689438864831 
7.247447235848 8.031037169912 2.457738517608 
5.241860403040 10.474213871754 7.689438864831 
7.711863678047 8.157931394047 5.623439085194 
4.777443960842 10.347319647620 0.391738737972 
1.467209858602 7.263111140675 5.623439085194 
11.022097780287 11.242139900991 0.391738737972 
7.646629918014 10.515466986053 5.143560799847 
4.842677720874 7.989784055614 10.375261147069 
1.401976098570 11.073992562558 5.143560799847 
11.087331540319 7.431258479109 10.375261147069 
9.605219523595 9.509732865694 6.339835312370 
2.884088115294 8.995518175973 1.108134965148 
3.360565704151 12.079726682917 6.339835312370 
9.128741934738 6.425524358749 1.108134965148 
9.323318073217 9.124412646621 3.957372475203 
3.165989565672 9.380838395046 9.189072822426 
3.078664253773 6.296629888101 3.957372475203 
9.410643385116 12.208621153565 9.189072822426 
9.765836119684 3.166516246184 9.026637604617 
2.723471519205 3.001900767705 3.794937257395 
3.521182300239 6.086109274650 9.026637604617 
8.968125338649 0.082307739239 3.794937257395 
9.411321539921 3.096578053926 1.244055143101 
3.077986098968 3.071838959963 6.475755490324 
3.166667720476 6.156047466907 1.244055143101 
9.322639918413 0.012369546981 6.475755490324 
9.765836119684 9.334933260073 9.026637604617 
2.723471519205 9.170317781594 3.794937257395 
3.521182300239 12.254526288539 9.026637604617 
8.968125338649 6.250724753128 3.794937257395 
9.411321539921 9.264995067815 1.244055143101 
3.077986098968 9.240255973852 6.475755490324 
3.166667720476 12.324464480796 1.244055143101 
9.322639918413 6.180786560870 6.475755490324 
