des obtained from _NaVPO4F_su_s10_1u_100_end by uniform scaling by 5.0 %
len_units Angstrom
hex_a None
hex_c None
gbpos None
version 10
acell 1 1 1
natom  128
ntypat 5
znucl  11 23 15 8 9 
typat  1 1 1 1 1 1 1 1 1 1 1 1 1 1 1 1 2 2 2 2 
2 2 2 2 2 2 2 2 2 2 2 2 3 3 3 3 3 3 3 3 
3 3 3 3 3 3 3 3 4 4 4 4 4 4 4 4 4 4 4 4 
4 4 4 4 4 4 4 4 4 4 4 4 4 4 4 4 4 4 4 4 
4 4 4 4 4 4 4 4 4 4 4 4 4 4 4 4 4 4 4 4 
4 4 4 4 4 4 4 4 4 4 4 4 5 5 5 5 5 5 5 5 
5 5 5 5 5 5 5 5 
rprim  13.488452250000 0.000000000000 0.000000000000 
0.000000000000 13.323780750000 0.000000000000 
0.000000000000 0.000000000000 11.300472750000 
xred  0.850861454381 0.392238829225 0.275882054521 
0.149138545619 0.107761170775 0.775882054521 
0.350861454381 0.357761170775 0.275882054521 
0.649138545619 0.142238829225 0.775882054521 
0.599975656338 0.389383747367 0.066997214876 
0.400024343662 0.110616252633 0.566997214876 
0.099975656338 0.360616252633 0.066997214876 
0.900024343662 0.139383747367 0.566997214876 
0.850861454381 0.892238829225 0.275882054521 
0.149138545619 0.607761170775 0.775882054521 
0.350861454381 0.857761170775 0.275882054521 
0.649138545619 0.642238829225 0.775882054521 
0.599975656338 0.889383747367 0.066997214876 
0.400024343662 0.610616252633 0.566997214876 
0.099975656338 0.860616252633 0.066997214876 
0.900024343662 0.639383747367 0.566997214876 
0.882844755720 0.256137833301 0.006948300710 
0.117155244280 0.243862166699 0.506948300710 
0.382844755720 0.493862166699 0.006948300710 
0.617155244280 0.006137833301 0.506948300710 
0.733963549728 0.129416114053 0.243435201752 
0.266036450272 0.370583885947 0.743435201752 
0.233963549728 0.120583885947 0.243435201752 
0.766036450272 0.379416114053 0.743435201752 
0.882844755720 0.756137833301 0.006948300710 
0.117155244280 0.743862166699 0.506948300710 
0.382844755720 0.993862166699 0.006948300710 
0.617155244280 0.506137833301 0.506948300710 
0.733963549728 0.629416114053 0.243435201752 
0.266036450272 0.870583885947 0.743435201752 
0.233963549728 0.620583885947 0.243435201752 
0.766036450272 0.879416114053 0.743435201752 
0.984648609461 0.167715652784 0.266268727465 
0.015351390539 0.332284347216 0.766268727465 
0.484648609461 0.082284347216 0.266268727465 
0.515351390539 0.417715652784 0.766268727465 
0.685448570465 0.257304654660 0.501151088282 
0.314551429535 0.242695345340 0.001151088282 
0.185448570465 0.492695345340 0.501151088282 
0.814551429535 0.007304654660 0.001151088282 
0.984648609461 0.667715652784 0.266268727465 
0.015351390539 0.832284347216 0.766268727465 
0.484648609461 0.582284347216 0.266268727465 
0.515351390539 0.917715652784 0.766268727465 
0.685448570465 0.757304654660 0.501151088282 
0.314551429535 0.742695345340 0.001151088282 
0.185448570465 0.992695345340 0.501151088282 
0.814551429535 0.507304654660 0.001151088282 
0.970457003208 0.258653275282 0.169869827777 
0.029542996792 0.241346724718 0.669869827777 
0.470457003208 0.491346724718 0.169869827777 
0.529542996792 0.008653275282 0.669869827777 
0.993391998206 0.222048375180 0.396607889210 
0.006608001794 0.277951624820 0.896607889210 
0.493391998206 0.027951624820 0.396607889210 
0.506608001794 0.472048375180 0.896607889210 
0.887369995746 0.095013541352 0.269452950816 
0.112630004254 0.404986458648 0.769452950816 
0.387369995746 0.154986458648 0.269452950816 
0.612630004254 0.345013541352 0.769452950816 
0.080292154329 0.099019598397 0.234889075682 
0.919707845671 0.400980401603 0.734889075682 
0.580292154329 0.150980401603 0.234889075682 
0.419707845671 0.349019598397 0.734889075682 
0.617477277446 0.161266202956 0.537438950243 
0.382522722554 0.338733797044 0.037438950243 
0.117477277446 0.088733797044 0.537438950243 
0.882522722554 0.411266202956 0.037438950243 
0.612254108803 0.352363496370 0.491576395672 
0.387745891197 0.147636503630 0.991576395672 
0.112254108803 0.397636503630 0.491576395672 
0.887745891197 0.102363496370 0.991576395672 
0.769075420457 0.270840626070 0.605905813751 
0.230924579543 0.229159373930 0.105905813751 
0.269075420457 0.479159373930 0.605905813751 
0.730924579543 0.020840626070 0.105905813751 
0.746503997082 0.239607311412 0.378210926903 
0.253496002918 0.260392688588 0.878210926903 
0.246503997082 0.010392688588 0.378210926903 
0.753496002918 0.489607311412 0.878210926903 
0.970457003208 0.758653275282 0.169869827777 
0.029542996792 0.741346724718 0.669869827777 
0.470457003208 0.991346724718 0.169869827777 
0.529542996792 0.508653275282 0.669869827777 
0.993391998206 0.722048375180 0.396607889210 
0.006608001794 0.777951624820 0.896607889210 
0.493391998206 0.527951624820 0.396607889210 
0.506608001794 0.972048375180 0.896607889210 
0.887369995746 0.595013541352 0.269452950816 
0.112630004254 0.904986458648 0.769452950816 
0.387369995746 0.654986458648 0.269452950816 
0.612630004254 0.845013541352 0.769452950816 
0.080292154329 0.599019598397 0.234889075682 
0.919707845671 0.900980401603 0.734889075682 
0.580292154329 0.650980401603 0.234889075682 
0.419707845671 0.849019598397 0.734889075682 
0.617477277446 0.661266202956 0.537438950243 
0.382522722554 0.838733797044 0.037438950243 
0.117477277446 0.588733797044 0.537438950243 
0.882522722554 0.911266202956 0.037438950243 
0.612254108803 0.852363496370 0.491576395672 
0.387745891197 0.647636503630 0.991576395672 
0.112254108803 0.897636503630 0.491576395672 
0.887745891197 0.602363496370 0.991576395672 
0.769075420457 0.770840626070 0.605905813751 
0.230924579543 0.729159373930 0.105905813751 
0.269075420457 0.979159373930 0.605905813751 
0.730924579543 0.520840626070 0.105905813751 
0.746503997082 0.739607311412 0.378210926903 
0.253496002918 0.760392688588 0.878210926903 
0.246503997082 0.510392688588 0.378210926903 
0.753496002918 0.989607311412 0.878210926903 
0.781935748726 0.256671706781 0.862686794496 
0.218064251274 0.243328293219 0.362686794496 
0.281935748726 0.493328293219 0.862686794496 
0.718064251274 0.006671706781 0.362686794496 
0.753550301749 0.251002651649 0.118895871374 
0.246449698251 0.248997348351 0.618895871374 
0.253550301749 0.498997348351 0.118895871374 
0.746449698251 0.001002651649 0.618895871374 
0.781935748726 0.756671706781 0.862686794496 
0.218064251274 0.743328293219 0.362686794496 
0.281935748726 0.993328293219 0.862686794496 
0.718064251274 0.506671706781 0.362686794496 
0.753550301749 0.751002651649 0.118895871374 
0.246449698251 0.748997348351 0.618895871374 
0.253550301749 0.998997348351 0.118895871374 
0.746449698251 0.501002651649 0.618895871374 
xcart  11.476804098784 5.226104162231 3.117597639329 
2.011648151216 1.435786212769 8.767834014329 
4.732577973784 4.766731400269 3.117597639329 
8.755874276216 1.895158974731 8.767834014329 
8.092742991678 5.188063677531 0.757100201032 
5.395709258322 1.473826697469 6.407336576032 
1.348516866678 4.804771884969 0.757100201032 
12.139935383322 1.857118490031 6.407336576032 
11.476804098784 11.887994537231 3.117597639329 
2.011648151216 8.097676587769 8.767834014329 
4.732577973784 11.428621775269 3.117597639329 
8.755874276216 8.557049349731 8.767834014329 
8.092742991678 11.849954052531 0.757100201032 
5.395709258322 8.135717072469 6.407336576032 
1.348516866678 11.466662259969 0.757100201032 
12.139935383322 8.519008865031 6.407336576032 
11.908209331692 3.412724332683 0.078519082832 
1.580242918308 3.249166042317 5.728755457832 
5.163983206692 6.580111229817 0.078519082832 
8.324469043308 0.081779145183 5.728755457832 
9.900032293747 1.724311929159 2.750932863789 
3.588419956253 4.937578445841 8.401169238789 
3.155806168747 1.606633258341 2.750932863789 
10.332646081253 5.055257116659 8.401169238789 
11.908209331692 10.074614707683 0.078519082832 
1.580242918308 9.911056417317 5.728755457832 
5.163983206692 13.242001604817 0.078519082832 
8.324469043308 6.743669520183 5.728755457832 
9.900032293747 8.386202304159 2.750932863789 
3.588419956253 11.599468820841 8.401169238789 
3.155806168747 8.268523633341 2.750932863789 
10.332646081253 11.717147491659 8.401169238789 
13.281385751744 2.234606586037 3.008962498895 
0.207066498256 4.427283788963 8.659198873895 
6.537159626744 1.096338601463 3.008962498895 
6.951292623256 5.565551773537 8.659198873895 
9.245640312548 3.428270804644 5.663244216764 
4.242811937452 3.233619570356 0.013007841764 
2.501414187548 6.564564757856 5.663244216764 
10.987038062452 0.097325617144 0.013007841764 
13.281385751744 8.896496961037 3.008962498895 
0.207066498256 11.089174163963 8.659198873895 
6.537159626744 7.758228976463 3.008962498895 
6.951292623256 12.227442148537 8.659198873895 
9.245640312548 10.090161179644 5.663244216764 
4.242811937452 9.895509945356 0.013007841764 
2.501414187548 13.226455132856 5.663244216764 
10.987038062452 6.759215992144 0.013007841764 
13.089962948449 3.446239530127 1.919609359841 
0.398489301551 3.215650844873 7.569845734841 
6.345736823449 6.546596032373 1.919609359841 
7.142715426551 0.115294342627 7.569845734841 
13.399320533334 2.958523866792 4.481856644453 
0.089131716666 3.703366508208 10.132093019453 
6.655094408334 0.372421320708 4.481856644453 
6.833357841666 6.289469054292 10.132093019453 
11.969247815703 1.265939593255 3.044945728103 
1.519204434297 5.395950781745 8.695182103103 
5.225021690703 2.065005594245 3.044945728103 
8.263430559297 4.596884780755 8.695182103103 
1.083016889716 1.319315418995 2.654357599017 
12.405435360284 5.342574956005 8.304593974017 
7.827243014716 2.011629768505 2.654357599017 
5.661209235284 4.650260606495 8.304593974017 
8.328812772290 2.148675530571 6.073314212010 
5.159639477710 4.513214844429 0.423077837010 
1.584586647290 1.182269656929 6.073314212010 
11.903865602710 5.479620718071 0.423077837010 
8.258360311456 4.694813969937 5.555045663835 
5.230091938544 1.967076405063 11.205282038835 
1.514134186456 5.298021592563 5.555045663835 
11.974318063544 1.363868782437 11.205282038835 
10.373637085483 3.608621119949 6.847022137360 
3.114815164517 3.053269255051 1.196785762360 
3.629410960483 6.384214442551 6.847022137360 
9.859041289517 0.277675932449 1.196785762360 
10.069183519075 3.192475283350 4.273962273220 
3.419268730925 3.469415091650 9.924198648220 
3.324957394075 0.138469904150 4.273962273220 
10.163494855925 6.523420470850 9.924198648220 
13.089962948449 10.108129905127 1.919609359841 
0.398489301551 9.877541219873 7.569845734841 
6.345736823449 13.208486407373 1.919609359841 
7.142715426551 6.777184717627 7.569845734841 
13.399320533334 9.620414241792 4.481856644453 
0.089131716666 10.365256883208 10.132093019453 
6.655094408334 7.034311695708 4.481856644453 
6.833357841666 12.951359429292 10.132093019453 
11.969247815703 7.927829968255 3.044945728103 
1.519204434297 12.057841156745 8.695182103103 
5.225021690703 8.726895969245 3.044945728103 
8.263430559297 11.258775155755 8.695182103103 
1.083016889716 7.981205793995 2.654357599017 
12.405435360284 12.004465331005 8.304593974017 
7.827243014716 8.673520143505 2.654357599017 
5.661209235284 11.312150981495 8.304593974017 
8.328812772290 8.810565905571 6.073314212010 
5.159639477710 11.175105219429 0.423077837010 
1.584586647290 7.844160031929 6.073314212010 
11.903865602710 12.141511093071 0.423077837010 
8.258360311456 11.356704344937 5.555045663835 
5.230091938544 8.628966780063 11.205282038835 
1.514134186456 11.959911967563 5.555045663835 
11.974318063544 8.025759157437 11.205282038835 
10.373637085483 10.270511494949 6.847022137360 
3.114815164517 9.715159630051 1.196785762360 
3.629410960483 13.046104817551 6.847022137360 
9.859041289517 6.939566307449 1.196785762360 
10.069183519075 9.854365658350 4.273962273220 
3.419268730925 10.131305466650 9.924198648220 
3.324957394075 6.800360279150 4.273962273220 
10.163494855925 13.185310845850 9.924198648220 
10.547103009259 3.419837545878 9.748768612987 
2.941349240741 3.242052829122 4.098532237987 
3.802876884259 6.572998016622 9.748768612987 
9.685575365741 0.088892358378 4.098532237987 
10.164227263114 3.344304298240 1.343579554549 
3.324224986886 3.317586076760 6.993815929549 
3.420001138114 6.648531264260 1.343579554549 
10.068451111886 0.013359110740 6.993815929549 
10.547103009259 10.081727920878 9.748768612987 
2.941349240741 9.903943204122 4.098532237987 
3.802876884259 13.234888391622 9.748768612987 
9.685575365741 6.750782733378 4.098532237987 
10.164227263114 10.006194673240 1.343579554549 
3.324224986886 9.979476451760 6.993815929549 
3.420001138114 13.310421639260 1.343579554549 
10.068451111886 6.675249485740 6.993815929549 
