des obtained from _NaVPO4F_su_s10_1u_100_end by uniform scaling by -3.888888888888889 %
len_units Angstrom
hex_a None
hex_c None
gbpos None
version 2
acell 1 1 1
natom  128
ntypat 5
znucl  11 23 15 8 9 
typat  1 1 1 1 1 1 1 1 1 1 1 1 1 1 1 1 2 2 2 2 
2 2 2 2 2 2 2 2 2 2 2 2 3 3 3 3 3 3 3 3 
3 3 3 3 3 3 3 3 4 4 4 4 4 4 4 4 4 4 4 4 
4 4 4 4 4 4 4 4 4 4 4 4 4 4 4 4 4 4 4 4 
4 4 4 4 4 4 4 4 4 4 4 4 4 4 4 4 4 4 4 4 
4 4 4 4 4 4 4 4 4 4 4 4 5 5 5 5 5 5 5 5 
5 5 5 5 5 5 5 5 
rprim  12.346572694444 0.000000000000 0.000000000000 
0.000000000000 12.195841638889 0.000000000000 
0.000000000000 0.000000000000 10.343818972222 
xred  0.850861454381 0.392238829225 0.275882054521 
0.149138545619 0.107761170775 0.775882054521 
0.350861454381 0.357761170775 0.275882054521 
0.649138545619 0.142238829225 0.775882054521 
0.599975656338 0.389383747367 0.066997214876 
0.400024343662 0.110616252633 0.566997214876 
0.099975656338 0.360616252633 0.066997214876 
0.900024343662 0.139383747367 0.566997214876 
0.850861454381 0.892238829225 0.275882054521 
0.149138545619 0.607761170775 0.775882054521 
0.350861454381 0.857761170775 0.275882054521 
0.649138545619 0.642238829225 0.775882054521 
0.599975656338 0.889383747367 0.066997214876 
0.400024343662 0.610616252633 0.566997214876 
0.099975656338 0.860616252633 0.066997214876 
0.900024343662 0.639383747367 0.566997214876 
0.882844755720 0.256137833301 0.006948300710 
0.117155244280 0.243862166699 0.506948300710 
0.382844755720 0.493862166699 0.006948300710 
0.617155244280 0.006137833301 0.506948300710 
0.733963549728 0.129416114053 0.243435201752 
0.266036450272 0.370583885947 0.743435201752 
0.233963549728 0.120583885947 0.243435201752 
0.766036450272 0.379416114053 0.743435201752 
0.882844755720 0.756137833301 0.006948300710 
0.117155244280 0.743862166699 0.506948300710 
0.382844755720 0.993862166699 0.006948300710 
0.617155244280 0.506137833301 0.506948300710 
0.733963549728 0.629416114053 0.243435201752 
0.266036450272 0.870583885947 0.743435201752 
0.233963549728 0.620583885947 0.243435201752 
0.766036450272 0.879416114053 0.743435201752 
0.984648609461 0.167715652784 0.266268727465 
0.015351390539 0.332284347216 0.766268727465 
0.484648609461 0.082284347216 0.266268727465 
0.515351390539 0.417715652784 0.766268727465 
0.685448570465 0.257304654660 0.501151088282 
0.314551429535 0.242695345340 0.001151088282 
0.185448570465 0.492695345340 0.501151088282 
0.814551429535 0.007304654660 0.001151088282 
0.984648609461 0.667715652784 0.266268727465 
0.015351390539 0.832284347216 0.766268727465 
0.484648609461 0.582284347216 0.266268727465 
0.515351390539 0.917715652784 0.766268727465 
0.685448570465 0.757304654660 0.501151088282 
0.314551429535 0.742695345340 0.001151088282 
0.185448570465 0.992695345340 0.501151088282 
0.814551429535 0.507304654660 0.001151088282 
0.970457003208 0.258653275282 0.169869827777 
0.029542996792 0.241346724718 0.669869827777 
0.470457003208 0.491346724718 0.169869827777 
0.529542996792 0.008653275282 0.669869827777 
0.993391998206 0.222048375180 0.396607889210 
0.006608001794 0.277951624820 0.896607889210 
0.493391998206 0.027951624820 0.396607889210 
0.506608001794 0.472048375180 0.896607889210 
0.887369995746 0.095013541352 0.269452950816 
0.112630004254 0.404986458648 0.769452950816 
0.387369995746 0.154986458648 0.269452950816 
0.612630004254 0.345013541352 0.769452950816 
0.080292154329 0.099019598397 0.234889075682 
0.919707845671 0.400980401603 0.734889075682 
0.580292154329 0.150980401603 0.234889075682 
0.419707845671 0.349019598397 0.734889075682 
0.617477277446 0.161266202956 0.537438950243 
0.382522722554 0.338733797044 0.037438950243 
0.117477277446 0.088733797044 0.537438950243 
0.882522722554 0.411266202956 0.037438950243 
0.612254108803 0.352363496370 0.491576395672 
0.387745891197 0.147636503630 0.991576395672 
0.112254108803 0.397636503630 0.491576395672 
0.887745891197 0.102363496370 0.991576395672 
0.769075420457 0.270840626070 0.605905813751 
0.230924579543 0.229159373930 0.105905813751 
0.269075420457 0.479159373930 0.605905813751 
0.730924579543 0.020840626070 0.105905813751 
0.746503997082 0.239607311412 0.378210926903 
0.253496002918 0.260392688588 0.878210926903 
0.246503997082 0.010392688588 0.378210926903 
0.753496002918 0.489607311412 0.878210926903 
0.970457003208 0.758653275282 0.169869827777 
0.029542996792 0.741346724718 0.669869827777 
0.470457003208 0.991346724718 0.169869827777 
0.529542996792 0.508653275282 0.669869827777 
0.993391998206 0.722048375180 0.396607889210 
0.006608001794 0.777951624820 0.896607889210 
0.493391998206 0.527951624820 0.396607889210 
0.506608001794 0.972048375180 0.896607889210 
0.887369995746 0.595013541352 0.269452950816 
0.112630004254 0.904986458648 0.769452950816 
0.387369995746 0.654986458648 0.269452950816 
0.612630004254 0.845013541352 0.769452950816 
0.080292154329 0.599019598397 0.234889075682 
0.919707845671 0.900980401603 0.734889075682 
0.580292154329 0.650980401603 0.234889075682 
0.419707845671 0.849019598397 0.734889075682 
0.617477277446 0.661266202956 0.537438950243 
0.382522722554 0.838733797044 0.037438950243 
0.117477277446 0.588733797044 0.537438950243 
0.882522722554 0.911266202956 0.037438950243 
0.612254108803 0.852363496370 0.491576395672 
0.387745891197 0.647636503630 0.991576395672 
0.112254108803 0.897636503630 0.491576395672 
0.887745891197 0.602363496370 0.991576395672 
0.769075420457 0.770840626070 0.605905813751 
0.230924579543 0.729159373930 0.105905813751 
0.269075420457 0.979159373930 0.605905813751 
0.730924579543 0.520840626070 0.105905813751 
0.746503997082 0.739607311412 0.378210926903 
0.253496002918 0.760392688588 0.878210926903 
0.246503997082 0.510392688588 0.378210926903 
0.753496002918 0.989607311412 0.878210926903 
0.781935748726 0.256671706781 0.862686794496 
0.218064251274 0.243328293219 0.362686794496 
0.281935748726 0.493328293219 0.862686794496 
0.718064251274 0.006671706781 0.362686794496 
0.753550301749 0.251002651649 0.118895871374 
0.246449698251 0.248997348351 0.618895871374 
0.253550301749 0.498997348351 0.118895871374 
0.746449698251 0.001002651649 0.618895871374 
0.781935748726 0.756671706781 0.862686794496 
0.218064251274 0.743328293219 0.362686794496 
0.281935748726 0.993328293219 0.862686794496 
0.718064251274 0.506671706781 0.362686794496 
0.753550301749 0.751002651649 0.118895871374 
0.246449698251 0.748997348351 0.618895871374 
0.253550301749 0.998997348351 0.118895871374 
0.746449698251 0.501002651649 0.618895871374 
xcart  10.505222799416 4.783682645851 2.853674029650 
1.841349895029 1.314238173593 8.025583515761 
4.331936452193 4.363198583315 2.853674029650 
8.014636242251 1.734722236129 8.025583515761 
7.407643055874 4.748862519645 0.693007062320 
4.938929638570 1.349058299799 5.864916548431 
1.234356708652 4.398018709522 0.693007062320 
11.112215985792 1.699902109923 5.864916548431 
10.505222799416 10.881603465296 2.853674029650 
1.841349895029 7.412158993038 8.025583515761 
4.331936452193 10.461119402760 2.853674029650 
8.014636242251 7.832643055574 8.025583515761 
7.407643055874 10.846783339089 0.693007062320 
4.938929638570 7.446979119244 5.864916548431 
1.234356708652 10.495939528966 0.693007062320 
11.112215985792 7.797822929367 5.864916548431 
10.900106954406 3.123816452667 0.071871964709 
1.446465740038 2.974104366777 5.243781450820 
4.726820607184 6.023064776500 0.071871964709 
7.619752087261 0.074856042945 5.243781450820 
9.061934321789 1.578338432511 2.518049658389 
3.284638372655 4.519582386934 7.689959144500 
2.888647974567 1.470621977211 2.518049658389 
9.457924719877 4.627298842233 7.689959144500 
10.900106954406 9.221737272112 0.071871964709 
1.446465740038 9.072025186222 5.243781450820 
4.726820607184 12.120985595944 0.071871964709 
7.619752087261 6.172776862389 5.243781450820 
9.061934321789 7.676259251955 2.518049658389 
3.284638372655 10.617503206378 7.689959144500 
2.888647974567 7.568542796656 2.518049658389 
9.457924719877 10.725219661677 7.689959144500 
12.157035635194 2.045433541717 2.754235514862 
0.189537059251 4.052487277728 7.926145000973 
5.983749287972 1.003526868006 2.754235514862 
6.362823406473 5.094393951439 7.926145000973 
8.462940603549 3.138046821182 5.183816134921 
3.883632090895 2.959873998262 0.011906648810 
2.289654256327 6.008834407984 5.183816134921 
10.056918438118 0.089086411460 0.011906648810 
12.157035635194 8.143354361161 2.754235514862 
0.189537059251 10.150408097172 7.926145000973 
5.983749287972 7.101447687450 2.754235514862 
6.362823406473 11.192314770883 7.926145000973 
8.462940603549 9.235967640627 5.183816134921 
3.883632090895 9.057794817707 0.011906648810 
2.289654256327 12.106755227429 5.183816134921 
10.056918438118 6.187007230905 0.011906648810 
11.981817936940 3.154494384719 1.757102747368 
0.364754757504 2.943426434725 6.929012233479 
5.808531589718 5.992386844447 1.757102747368 
6.538041104726 0.105533974997 6.929012233479 
12.264986519930 2.708066819868 4.102440208943 
0.081586174515 3.389853999577 9.274349695055 
6.091700172708 0.340893589854 4.102440208943 
6.254872521737 5.757027229590 9.274349695055 
10.955978159347 1.158770103879 2.787172544772 
1.390594535098 4.939150715565 7.959082030883 
4.782691812125 1.890190305843 2.787172544772 
7.563880882320 4.207730513601 7.959082030883 
0.991332920217 1.207627341196 2.429650077407 
11.355239774228 4.890293478248 7.601559563518 
7.164619267439 1.841333068526 2.429650077407 
5.181953427006 4.256587750918 7.601559563518 
7.623728093155 1.966777072956 5.559171209935 
4.722844601290 4.131143746488 0.387261723824 
1.450441745932 1.082183336766 5.559171209935 
10.896130948512 5.015737482679 0.387261723824 
7.559239861809 4.297369401054 5.084777247849 
4.787332832636 1.800551418391 10.256686733960 
1.385953514586 4.849511828113 5.084777247849 
10.960619179858 1.248408991332 10.256686733960 
9.495445586183 3.303129384927 6.267380051657 
2.851127108262 2.794791434517 1.095470565546 
3.322159238961 5.843751844239 6.267380051657 
9.024413455484 0.254168975205 1.095470565546 
9.216765866666 2.922212825501 3.912145361201 
3.129806827778 3.175707993944 9.084054847312 
3.043479519444 0.126747584222 3.912145361201 
9.303093175000 5.971173235223 9.084054847312 
11.981817936940 9.252415204164 1.757102747368 
0.364754757504 9.041347254170 6.929012233479 
5.808531589718 12.090307663892 1.757102747368 
6.538041104726 6.203454794441 6.929012233479 
12.264986519930 8.805987639312 4.102440208943 
0.081586174515 9.487774819021 9.274349695055 
6.091700172708 6.438814409299 4.102440208943 
6.254872521737 11.854948049035 9.274349695055 
10.955978159347 7.256690923323 2.787172544772 
1.390594535098 11.037071535010 7.959082030883 
4.782691812125 7.988111125288 2.787172544772 
7.563880882320 10.305651333046 7.959082030883 
0.991332920217 7.305548160641 2.429650077407 
11.355239774228 10.988214297693 7.601559563518 
7.164619267439 7.939253887970 2.429650077407 
5.181953427006 10.354508570363 7.601559563518 
7.623728093155 8.064697892401 5.559171209935 
4.722844601290 10.229064565933 0.387261723824 
1.450441745932 7.180104156210 5.559171209935 
10.896130948512 11.113658302123 0.387261723824 
7.559239861809 10.395290220498 5.084777247849 
4.787332832636 7.898472237835 10.256686733960 
1.385953514586 10.947432647557 5.084777247849 
10.960619179858 7.346329810776 10.256686733960 
9.495445586183 9.401050204372 6.267380051657 
2.851127108262 8.892712253962 1.095470565546 
3.322159238961 11.941672663684 6.267380051657 
9.024413455484 6.352089794649 1.095470565546 
9.216765866666 9.020133644945 3.912145361201 
3.129806827778 9.273628813388 9.084054847312 
3.043479519444 6.224668403666 3.912145361201 
9.303093175000 12.069094054667 9.084054847312 
9.654226564030 3.130327489084 8.923476031993 
2.692346130414 2.967593330360 3.751566545882 
3.480940216808 6.016553740082 8.923476031993 
8.865632477636 0.081367079362 3.751566545882 
9.303763579465 3.061188590452 1.229837370037 
3.042809114980 3.036732228992 6.401746856148 
3.130477232242 6.085692638714 1.229837370037 
9.216095462202 0.012228180730 6.401746856148 
9.654226564030 9.228248308529 8.923476031993 
2.692346130414 9.065514149805 3.751566545882 
3.480940216808 12.114474559527 8.923476031993 
8.865632477636 6.179287898807 3.751566545882 
9.303763579465 9.159109409897 1.229837370037 
3.042809114980 9.134653048436 6.401746856148 
3.130477232242 12.183613458159 1.229837370037 
9.216095462202 6.110149000175 6.401746856148 
