des obtained from _NaVPO4F_su_s10_1u_100_end by uniform scaling by -5.0 %
len_units Angstrom
hex_a None
hex_c None
gbpos None
version 1
acell 1 1 1
natom  128
ntypat 5
znucl  11 23 15 8 9 
typat  1 1 1 1 1 1 1 1 1 1 1 1 1 1 1 1 2 2 2 2 
2 2 2 2 2 2 2 2 2 2 2 2 3 3 3 3 3 3 3 3 
3 3 3 3 3 3 3 3 4 4 4 4 4 4 4 4 4 4 4 4 
4 4 4 4 4 4 4 4 4 4 4 4 4 4 4 4 4 4 4 4 
4 4 4 4 4 4 4 4 4 4 4 4 4 4 4 4 4 4 4 4 
4 4 4 4 4 4 4 4 4 4 4 4 5 5 5 5 5 5 5 5 
5 5 5 5 5 5 5 5 
rprim  12.203837750000 0.000000000000 0.000000000000 
0.000000000000 12.054849250000 0.000000000000 
0.000000000000 0.000000000000 10.224237250000 
xred  0.850861454381 0.392238829225 0.275882054521 
0.149138545619 0.107761170775 0.775882054521 
0.350861454381 0.357761170775 0.275882054521 
0.649138545619 0.142238829225 0.775882054521 
0.599975656338 0.389383747367 0.066997214876 
0.400024343662 0.110616252633 0.566997214876 
0.099975656338 0.360616252633 0.066997214876 
0.900024343662 0.139383747367 0.566997214876 
0.850861454381 0.892238829225 0.275882054521 
0.149138545619 0.607761170775 0.775882054521 
0.350861454381 0.857761170775 0.275882054521 
0.649138545619 0.642238829225 0.775882054521 
0.599975656338 0.889383747367 0.066997214876 
0.400024343662 0.610616252633 0.566997214876 
0.099975656338 0.860616252633 0.066997214876 
0.900024343662 0.639383747367 0.566997214876 
0.882844755720 0.256137833301 0.006948300710 
0.117155244280 0.243862166699 0.506948300710 
0.382844755720 0.493862166699 0.006948300710 
0.617155244280 0.006137833301 0.506948300710 
0.733963549728 0.129416114053 0.243435201752 
0.266036450272 0.370583885947 0.743435201752 
0.233963549728 0.120583885947 0.243435201752 
0.766036450272 0.379416114053 0.743435201752 
0.882844755720 0.756137833301 0.006948300710 
0.117155244280 0.743862166699 0.506948300710 
0.382844755720 0.993862166699 0.006948300710 
0.617155244280 0.506137833301 0.506948300710 
0.733963549728 0.629416114053 0.243435201752 
0.266036450272 0.870583885947 0.743435201752 
0.233963549728 0.620583885947 0.243435201752 
0.766036450272 0.879416114053 0.743435201752 
0.984648609461 0.167715652784 0.266268727465 
0.015351390539 0.332284347216 0.766268727465 
0.484648609461 0.082284347216 0.266268727465 
0.515351390539 0.417715652784 0.766268727465 
0.685448570465 0.257304654660 0.501151088282 
0.314551429535 0.242695345340 0.001151088282 
0.185448570465 0.492695345340 0.501151088282 
0.814551429535 0.007304654660 0.001151088282 
0.984648609461 0.667715652784 0.266268727465 
0.015351390539 0.832284347216 0.766268727465 
0.484648609461 0.582284347216 0.266268727465 
0.515351390539 0.917715652784 0.766268727465 
0.685448570465 0.757304654660 0.501151088282 
0.314551429535 0.742695345340 0.001151088282 
0.185448570465 0.992695345340 0.501151088282 
0.814551429535 0.507304654660 0.001151088282 
0.970457003208 0.258653275282 0.169869827777 
0.029542996792 0.241346724718 0.669869827777 
0.470457003208 0.491346724718 0.169869827777 
0.529542996792 0.008653275282 0.669869827777 
0.993391998206 0.222048375180 0.396607889210 
0.006608001794 0.277951624820 0.896607889210 
0.493391998206 0.027951624820 0.396607889210 
0.506608001794 0.472048375180 0.896607889210 
0.887369995746 0.095013541352 0.269452950816 
0.112630004254 0.404986458648 0.769452950816 
0.387369995746 0.154986458648 0.269452950816 
0.612630004254 0.345013541352 0.769452950816 
0.080292154329 0.099019598397 0.234889075682 
0.919707845671 0.400980401603 0.734889075682 
0.580292154329 0.150980401603 0.234889075682 
0.419707845671 0.349019598397 0.734889075682 
0.617477277446 0.161266202956 0.537438950243 
0.382522722554 0.338733797044 0.037438950243 
0.117477277446 0.088733797044 0.537438950243 
0.882522722554 0.411266202956 0.037438950243 
0.612254108803 0.352363496370 0.491576395672 
0.387745891197 0.147636503630 0.991576395672 
0.112254108803 0.397636503630 0.491576395672 
0.887745891197 0.102363496370 0.991576395672 
0.769075420457 0.270840626070 0.605905813751 
0.230924579543 0.229159373930 0.105905813751 
0.269075420457 0.479159373930 0.605905813751 
0.730924579543 0.020840626070 0.105905813751 
0.746503997082 0.239607311412 0.378210926903 
0.253496002918 0.260392688588 0.878210926903 
0.246503997082 0.010392688588 0.378210926903 
0.753496002918 0.489607311412 0.878210926903 
0.970457003208 0.758653275282 0.169869827777 
0.029542996792 0.741346724718 0.669869827777 
0.470457003208 0.991346724718 0.169869827777 
0.529542996792 0.508653275282 0.669869827777 
0.993391998206 0.722048375180 0.396607889210 
0.006608001794 0.777951624820 0.896607889210 
0.493391998206 0.527951624820 0.396607889210 
0.506608001794 0.972048375180 0.896607889210 
0.887369995746 0.595013541352 0.269452950816 
0.112630004254 0.904986458648 0.769452950816 
0.387369995746 0.654986458648 0.269452950816 
0.612630004254 0.845013541352 0.769452950816 
0.080292154329 0.599019598397 0.234889075682 
0.919707845671 0.900980401603 0.734889075682 
0.580292154329 0.650980401603 0.234889075682 
0.419707845671 0.849019598397 0.734889075682 
0.617477277446 0.661266202956 0.537438950243 
0.382522722554 0.838733797044 0.037438950243 
0.117477277446 0.588733797044 0.537438950243 
0.882522722554 0.911266202956 0.037438950243 
0.612254108803 0.852363496370 0.491576395672 
0.387745891197 0.647636503630 0.991576395672 
0.112254108803 0.897636503630 0.491576395672 
0.887745891197 0.602363496370 0.991576395672 
0.769075420457 0.770840626070 0.605905813751 
0.230924579543 0.729159373930 0.105905813751 
0.269075420457 0.979159373930 0.605905813751 
0.730924579543 0.520840626070 0.105905813751 
0.746503997082 0.739607311412 0.378210926903 
0.253496002918 0.760392688588 0.878210926903 
0.246503997082 0.510392688588 0.378210926903 
0.753496002918 0.989607311412 0.878210926903 
0.781935748726 0.256671706781 0.862686794496 
0.218064251274 0.243328293219 0.362686794496 
0.281935748726 0.493328293219 0.862686794496 
0.718064251274 0.006671706781 0.362686794496 
0.753550301749 0.251002651649 0.118895871374 
0.246449698251 0.248997348351 0.618895871374 
0.253550301749 0.498997348351 0.118895871374 
0.746449698251 0.001002651649 0.618895871374 
0.781935748726 0.756671706781 0.862686794496 
0.218064251274 0.743328293219 0.362686794496 
0.281935748726 0.993328293219 0.862686794496 
0.718064251274 0.506671706781 0.362686794496 
0.753550301749 0.751002651649 0.118895871374 
0.246449698251 0.748997348351 0.618895871374 
0.253550301749 0.998997348351 0.118895871374 
0.746449698251 0.501002651649 0.618895871374 
xcart  10.383775136995 4.728379956304 2.820683578440 
1.820062613005 1.299044668696 7.932802203440 
4.281856261995 4.312756981196 2.820683578440 
7.921981488005 1.714667643804 7.932802203440 
7.322005563899 4.693962374909 0.684995419981 
4.881832186101 1.333462250091 5.797114044981 
1.220086688899 4.347174562591 0.684995419981 
10.983751061101 1.680250062409 5.797114044981 
10.383775136995 10.755804581304 2.820683578440 
1.820062613005 7.326469293696 7.932802203440 
4.281856261995 10.340181606196 2.820683578440 
7.921981488005 7.742092268804 7.932802203440 
7.322005563899 10.721386999909 0.684995419981 
4.881832186101 7.360886875091 5.797114044981 
1.220086688899 10.374599187591 0.684995419981 
10.983751061101 7.707674687409 5.797114044981 
10.774094157245 3.087702967665 0.071041074943 
1.429743592755 2.939721657335 5.183159699943 
4.672175282245 5.953433969835 0.071041074943 
7.531662467755 0.073990655165 5.183159699943 
8.957172075295 1.560091745430 2.488939257714 
3.246665674705 4.467332879570 7.601057882714 
2.855253200295 1.453620567070 2.488939257714 
9.348584549705 4.573804057930 7.601057882714 
10.774094157245 9.115127592665 0.071041074943 
1.429743592755 8.967146282335 5.183159699943 
4.672175282245 11.980858594835 0.071041074943 
7.531662467755 6.101415280165 5.183159699943 
8.957172075295 7.587516370430 2.488939257714 
3.246665674705 10.494757504570 7.601057882714 
2.855253200295 7.481045192070 2.488939257714 
9.348584549705 10.601228682930 7.601057882714 
12.016491870625 2.021786911176 2.722394641858 
0.187345879375 4.005637713824 7.834513266858 
5.914572995625 0.991925401324 2.722394641858 
6.289264754375 5.035499223676 7.834513266858 
8.365103139924 3.101768823250 5.123887624691 
3.838734610076 2.925655801750 0.011768999691 
2.263184264924 5.939368114250 5.123887624691 
9.940653485076 0.088056510750 0.011768999691 
12.016491870625 8.049211536176 2.722394641858 
0.187345879375 10.033062338824 7.834513266858 
5.914572995625 7.019350026324 2.722394641858 
6.289264754375 11.062923848676 7.834513266858 
8.365103139924 9.129193448250 5.123887624691 
3.838734610076 8.953080426750 0.011768999691 
2.263184264924 11.966792739250 5.123887624691 
9.940653485076 6.115481135750 0.011768999691 
11.843299810502 3.118026241543 1.736789420809 
0.360537939498 2.909398383457 6.848908045809 
5.741380935502 5.923110695957 1.736789420809 
6.462456814498 0.104313929043 6.848908045809 
12.123194768254 2.676759689002 4.055013154505 
0.080642981746 3.350664935998 9.167131779505 
6.021275893254 0.336952623498 4.055013154505 
6.182561856746 5.690472001502 9.167131779505 
10.829319452302 1.145373917707 2.754950896855 
1.374518297698 4.882050707293 7.867069521855 
4.727400577302 1.868338394793 2.754950896855 
7.476437172698 4.159086230207 7.867069521855 
0.979872424029 1.193666331471 2.401561637206 
11.223965325971 4.833758293529 7.513680262206 
7.081791299029 1.820045981029 2.401561637206 
5.122046450971 4.207378643971 7.513680262206 
7.535592508263 1.944039765754 5.494903334675 
4.668245241737 4.083384859246 0.382784709675 
1.433673633263 1.069672546746 5.494903334675 
10.770164116737 4.957752078254 0.382784709675 
7.471849805603 4.247688829943 5.025993695850 
4.731987944397 1.779735795057 10.138112320850 
1.369930930603 4.793448107557 5.025993695850 
10.833906819397 1.233976517443 10.138112320850 
9.385671648770 3.264942918049 6.194924790945 
2.818166101230 2.762481706951 1.082806165945 
3.283752773770 5.776194019451 6.194924790945 
8.920084976230 0.251230605549 1.082806165945 
9.110213660115 2.888430018269 3.866918247199 
3.093624089885 3.138994606731 8.979036872199 
3.008294785115 0.125282294231 3.866918247199 
9.195542964885 5.902142330769 8.979036872199 
11.843299810502 9.145450866543 1.736789420809 
0.360537939498 8.936823008457 6.848908045809 
5.741380935502 11.950535320957 1.736789420809 
6.462456814498 6.131738554043 6.848908045809 
12.123194768254 8.704184314002 4.055013154505 
0.080642981746 9.378089560998 9.167131779505 
6.021275893254 6.364377248498 4.055013154505 
6.182561856746 11.717896626502 9.167131779505 
10.829319452302 7.172798542707 2.754950896855 
1.374518297698 10.909475332293 7.867069521855 
4.727400577302 7.895763019793 2.754950896855 
7.476437172698 10.186510855207 7.867069521855 
0.979872424029 7.221090956471 2.401561637206 
11.223965325971 10.861182918529 7.513680262206 
7.081791299029 7.847470606029 2.401561637206 
5.122046450971 10.234803268971 7.513680262206 
7.535592508263 7.971464390754 5.494903334675 
4.668245241737 10.110809484246 0.382784709675 
1.433673633263 7.097097171746 5.494903334675 
10.770164116737 10.985176703254 0.382784709675 
7.471849805603 10.275113454943 5.025993695850 
4.731987944397 7.807160420057 10.138112320850 
1.369930930603 10.820872732557 5.025993695850 
10.833906819397 7.261401142443 10.138112320850 
9.385671648770 9.292367543049 6.194924790945 
2.818166101230 8.789906331951 1.082806165945 
3.283752773770 11.803618644451 6.194924790945 
8.920084976230 6.278655230549 1.082806165945 
9.110213660115 8.915854643269 3.866918247199 
3.093624089885 9.166419231731 8.979036872199 
3.008294785115 6.152706919231 3.866918247199 
9.195542964885 11.929566955769 8.979036872199 
9.542617008377 3.094138731985 8.820314459369 
2.661220741623 2.933285893015 3.708195834369 
3.440698133377 5.946998205515 8.820314459369 
8.763139616623 0.080426419485 3.708195834369 
9.196205619008 3.025799126979 1.215619596973 
3.007632130992 3.001625498021 6.327738221973 
3.094286744008 6.015337810521 1.215619596973 
9.109551005992 0.012086814479 6.327738221973 
9.542617008377 9.121563356985 8.820314459369 
2.661220741623 8.960710518015 3.708195834369 
3.440698133377 11.974422830515 8.820314459369 
8.763139616623 6.107851044485 3.708195834369 
9.196205619008 9.053223751979 1.215619596973 
3.007632130992 9.029050123021 6.327738221973 
3.094286744008 12.042762435521 1.215619596973 
9.109551005992 6.039511439479 6.327738221973 
